# HZ S RI R 50
665000000 0.7603383026 -0.6207745701 0.0020352205 0.0014859167 0.0019866526 0.0014779418 0.5732102406 -0.8066166930
665312500 0.7607760437 -0.6211434073 0.0020401374 0.0014748384 0.0019941249 0.0014735035 0.5742685007 -0.8067872562
665625000 0.7604534957 -0.6219082516 0.0020206868 0.0015047511 0.0019984475 0.0014949417 0.5733921457 -0.8069938195
665937500 0.7607110627 -0.6213591395 0.0020651127 0.0014928502 0.0020506716 0.0014818798 0.5732865403 -0.8065718748
666250000 0.7583600639 -0.6229397594 0.0020665438 0.0014730381 0.0020275336 0.0014820900 0.5717247878 -0.8068752364
666562500 0.7596262517 -0.6229539745 0.0020727056 0.0014681494 0.0020494031 0.0014876183 0.5728135414 -0.8075307365
666875000 0.7599930996 -0.6230151497 0.0020996106 0.0014286988 0.0020591600 0.0014366176 0.5722309584 -0.8077341290
667187500 0.7580567769 -0.6238961420 0.0020895756 0.0014591488 0.0020488738 0.0014381539 0.5713308137 -0.8075495088
667500000 0.7582897419 -0.6238974517 0.0020786417 0.0014309681 0.0020606210 0.0014466243 0.5711019575 -0.8082846793
667812500 0.7583205650 -0.6241845130 0.0020721454 0.0014333864 0.0020440208 0.0014318493 0.5713443091 -0.8085549938
668125000 0.7572064000 -0.6236301410 0.0020603211 0.0014013612 0.0020404501 0.0014013925 0.5695447542 -0.8087673842
668437500 0.7573818007 -0.6231275223 0.0020563748 0.0014510875 0.0020352935 0.0014349537 0.5697948136 -0.8087512401
668750000 0.7561401366 -0.6250967539 0.0020590674 0.0013987503 0.0020195921 0.0013795840 0.5686887349 -0.8085831281
669062500 0.7572999818 -0.6244575665 0.0020385363 0.0014079503 0.0020131923 0.0013731748 0.5683373370 -0.8097143125
669375000 0.7572345465 -0.6243063149 0.0020698683 0.0014118115 0.0020531063 0.0014082922 0.5688999290 -0.8090682779
669687500 0.7567018781 -0.6238493242 0.0020287650 0.0014088494 0.0020048891 0.0013969443 0.5679201357 -0.8081421730
670000000 0.7561291944 -0.6251872765 0.0020402109 0.0014107920 0.0020191697 0.0013677749 0.5682078578 -0.8082778155
670312500 0.7563901935 -0.6249265113 0.0020250176 0.0014031314 0.0020048632 0.0013846295 0.5686422253 -0.8087275534
670625000 0.7554162312 -0.6257455437 0.0020440325 0.0013694211 0.0019909561 0.0013923804 0.5672198490 -0.8096278008
670937500 0.7555811398 -0.6260862679 0.0020020482 0.0013603442 0.0019660402 0.0013757892 0.5670330020 -0.8103234504
671250000 0.7544767104 -0.6249937852 0.0019895635 0.0013880124 0.0019672418 0.0013858786 0.5661010804 -0.8087521168
671562500 0.7543356556 -0.6267862725 0.0020264790 0.0013765042 0.0019706596 0.0013795503 0.5660559580 -0.8100033515
671875000 0.7559206008 -0.6249195832 0.0020043723 0.0013767097 0.0019533709 0.0013573468 0.5665676034 -0.8096019565
672187500 0.7571305380 -0.6245908461 0.0019774953 0.0013903118 0.0019685602 0.0013836481 0.5663629439 -0.8105652605
672500000 0.7551413460 -0.6250569332 0.0019637389 0.0013732455 0.0019297568 0.0013458890 0.5658589082 -0.8092431561
672812500 0.7544963031 -0.6257960261 0.0019647706 0.0013637726 0.0019354801 0.0013897486 0.5649284777 -0.8093001423
673125000 0.7552538260 -0.6266800069 0.0019432694 0.0013840063 0.0019373774 0.0013773495 0.5656456286 -0.8111379413
673437500 0.7548854213 -0.6273750351 0.0019762677 0.0014043810 0.0019322405 0.0013713169 0.5652109011 -0.8108094112
673750000 0.7558643630 -0.6257419508 0.0019465192 0.0013644979 0.0019233363 0.0013603630 0.5665213713 -0.8097674368
674062500 0.7542605866 -0.6272500681 0.0019216347 0.0014130982 0.0018925235 0.0014293229 0.5657684796 -0.8096787355
674375000 0.7557663168 -0.6266369725 0.0019530616 0.0014139843 0.0019228806 0.0013898903 0.5654233814 -0.8108931610
674687500 0.7547524932 -0.6276684242 0.0019261142 0.0014378455 0.0019000051 0.0014107685 0.5657191430 -0.8108527146
675000000 0.7538150215 -0.6290736718 0.0019079663 0.0014463867 0.0019023678 0.0014450443 0.5656565856 -0.8115136054
675312500 0.7553236065 -0.6280009298 0.0019457078 0.0014659515 0.0019043885 0.0014454644 0.5652856426 -0.8126571939
675625000 0.7536157445 -0.6290076149 0.0019968901 0.0014442555 0.0019370334 0.0014349564 0.5646664194 -0.8119416310
675937500 0.7538972258 -0.6297563198 0.0019856891 0.0014514627 0.0019574171 0.0014488576 0.5642769241 -0.8138014335
676250000 0.7538797691 -0.6293664579 0.0019756340 0.0014443466 0.0019302941 0.0014411765 0.5638832645 -0.8140232518
676562500 0.7533392767 -0.6300534135 0.0020013717 0.0014668860 0.0019487518 0.0014561261 0.5630989826 -0.8142000817
676875000 0.7535657712 -0.6295959361 0.0020063031 0.0014641881 0.0020095486 0.0014695423 0.5632366572 -0.8141421690
677187500 0.7532325446 -0.6294763734 0.0020521949 0.0014206352 0.0020313203 0.0014192622 0.5625724835 -0.8142301218
677500000 0.7537044926 -0.6290211324 0.0020058509 0.0013802833 0.0019743132 0.0013823497 0.5632093853 -0.8138631451
677812500 0.7521942461 -0.6308245924 0.0020293665 0.0013796284 0.0020099399 0.0014042569 0.5612817127 -0.8152785480
678125000 0.7529811711 -0.6309150050 0.0020517478 0.0013754310 0.0019739991 0.0013675897 0.5617939552 -0.8155966616
678437500 0.7527572380 -0.6315727813 0.0019970462 0.0013387897 0.0019658129 0.0013377556 0.5614335187 -0.8157384524
678750000 0.7524401399 -0.6313801263 0.0019772810 0.0013386888 0.0019523117 0.0013144930 0.5615590042 -0.8158608296
679062500 0.7511352044 -0.6325413923 0.0019551083 0.0013168703 0.0019461629 0.0013044434 0.5597061836 -0.8164872950
679375000 0.7520846764 -0.6313879232 0.0019426394 0.0013003101 0.0018940653 0.0012982245 0.5606487736 -0.8165369058
679687500 0.7510776993 -0.6327104245 0.0019328307 0.0012810108 0.0019102853 0.0012840378 0.5596728321 -0.8166109863
680000000 0.7516554907 -0.6320525455 0.0019094144 0.0012711787 0.0018439399 0.0012639610 0.5591095158 -0.8170218072
680312500 0.7506178614 -0.6326057863 0.0018708669 0.0013007081 0.0018426798 0.0013058911 0.5575203683 -0.8168193862
680625000 0.7507144467 -0.6333554494 0.0018488136 0.0013419377 0.0018268068 0.0013055330 0.5585618888 -0.8169665634
680937500 0.7508355241 -0.6331406438 0.0018601100 0.0013214520 0.0018404807 0.0013173376 0.5579970572 -0.8177889228
681250000 0.7506776680 -0.6324712664 0.0018718220 0.0013183280 0.0018297582 0.0013152467 0.5568489077 -0.8180848787
681562500 0.7493932077 -0.6338421549 0.0018218739 0.0012693843 0.0018021055 0.0012742304 0.5559445084 -0.8176671376
681875000 0.7503318386 -0.6330355637 0.0017626893 0.0012833166 0.0016978841 0.0012758842 0.5554273198 -0.8176360033
682187500 0.7492660510 -0.6344471734 0.0017130701 0.0013431253 0.0016850080 0.0013541530 0.5538239693 -0.8175657775
682500000 0.7497112226 -0.6343240515 0.0017229426 0.0013966686 0.0017269441 0.0013947991 0.5543405551 -0.8169758958
682812500 0.7494001402 -0.6343174155 0.0017085481 0.0013720355 0.0016960837 0.0013765654 0.5538107628 -0.8163672134
683125000 0.7491655370 -0.6343296187 0.0016985728 0.0014706924 0.0016715280 0.0014563314 0.5533839748 -0.8160598461
683437500 0.7497095958 -0.6347681890 0.0017376703 0.0014229033 0.0017086893 0.0014124487 0.5547328298 -0.8154974915
683750000 0.7488358727 -0.6348728360 0.0017051552 0.0014541308 0.0016588426 0.0014294398 0.5543358351 -0.8156559889
684062500 0.7495700471 -0.6343621339 0.0016404870 0.0015229744 0.0016155809 0.0015086215 0.5544638838 -0.8154516652
684375000 0.7475242727 -0.6358962672 0.0016781033 0.0015967680 0.0016532572 0.0015894949 0.5535113209 -0.8160091755
684687500 0.7487554573 -0.6356333169 0.0017342139 0.0015773912 0.0016966406 0.0015681242 0.5555635838 -0.8163237703
685000000 0.7482102755 -0.6355909856 0.0016773182 0.0015596545 0.0016320465 0.0015518595 0.5536450033 -0.8171965419
685312500 0.7472948604 -0.6362173698 0.0015892519 0.0016247190 0.0015470498 0.0015986744 0.5541261304 -0.8165289241
685625000 0.7477933990 -0.6366971996 0.0015665074 0.0018028246 0.0015324364 0.0017697891 0.5531084066 -0.8170459456
685937500 0.7484022841 -0.6360946295 0.0016791865 0.0018908667 0.0016442189 0.0018897222 0.5538474893 -0.8158000498
686250000 0.7477636406 -0.6364999464 0.0018777092 0.0018987950 0.0018650776 0.0018914679 0.5550609401 -0.8160017403
686562500 0.7472310688 -0.6365053536 0.0019001454 0.0017963640 0.0018556843 0.0017637096 0.5544408205 -0.8172255724
686875000 0.7481843806 -0.6364713149 0.0018519289 0.0018326026 0.0018070175 0.0018350641 0.5537564305 -0.8172335535
687187500 0.7467370874 -0.6382388333 0.0019393682 0.0018656066 0.0019145181 0.0018510096 0.5527856807 -0.8176721102
687500000 0.7466943095 -0.6386268390 0.0019394645 0.0018504965 0.0019230360 0.0018502572 0.5515644946 -0.8184873073
687812500 0.7474703264 -0.6370439745 0.0020754692 0.0019665804 0.0020351389 0.0019335116 0.5531886588 -0.8161203775
688125000 0.7468458905 -0.6385232708 0.0021746382 0.0018305426 0.0021451144 0.0018465391 0.5540998340 -0.8170205106
688437500 0.7478458681 -0.6381998001 0.0021709424 0.0017355132 0.0021234821 0.0017309326 0.5536524361 -0.8166401215
688750000 0.7462622010 -0.6395305610 0.0021501906 0.0017459391 0.0021512606 0.0017485906 0.5530610756 -0.8170580082
689062500 0.7472055750 -0.6393576259 0.0021490436 0.0017232818 0.0021303125 0.0016882327 0.5539606227 -0.8186873172
689375000 0.7451040882 -0.6402539630 0.0021515058 0.0017030354 0.0021140426 0.0016906184 0.5529466199 -0.8179051402
689687500 0.7455918724 -0.6400005077 0.0021757927 0.0017107701 0.0021568383 0.0016924197 0.5528463498 -0.8193086537
690000000 0.7459983279 -0.6409745568 0.0022063224 0.0017142680 0.0021864046 0.0016931219 0.5540865894 -0.8207134839
690312500 0.7457085892 -0.6405477303 0.0022344238 0.0016163340 0.0021772414 0.0016310046 0.5543622638 -0.8203235733
690625000 0.7456069983 -0.6394232169 0.0022258900 0.0016067915 0.0021520043 0.0016072586 0.5532641185 -0.8209711423
690937500 0.7446207317 -0.6415852486 0.0021924062 0.0016267802 0.0021893606 0.016187979 0.5536090488 -0.8213654564
691250000 0.7441096353 -0.6415170965 0.0022580730 0.0016130334 0.0022310689 0.0016020113 0.5521321144 -0.8221116343
691562500 0.7433294120 -0.6429166443 0.0022610024 0.0015732499 0.0022434959 0.0015593096 0.5523147724 -0.8226931105
691875000 0.7440352781 -0.6408415783 0.0022336344 0.0015137798 0.0021850324 0.0015211119 0.5522217830 -0.8225860422
692187500 0.7440118538 -0.6419699497 0.0022425358 0.0015386729 0.0022202657 0.0015069997 0.5526799944 -0.8230110500
692500000 0.7440626515 -0.6417471327 0.0022502919 0.0015014173 0.0022286484 0.0014702214 0.5516344126 -0.8245620911
692812500 0.7428997930 -0.6415021110 0.0022720185 0.0014566988 0.0022296853 0.0014674435 0.5510629246 -0.8235515333
693125000 0.7426905237 -0.6418836369 0.0022554070 0.0013993664 0.0022107921 0.0014091085 0.5503816067 -0.8231519475
693437500 0.7434185150 -0.6419440536 0.0022010961 0.0013887136 0.0021532940 0.0014063413 0.5494927878 -0.8239744471
693750000 0.7425341470 -0.6424346410 0.0021728441 0.0013824500 0.0021412649 0.0013621291 0.5494134813 -0.8243761735
694062500 0.7427477150 -0.6430797046 0.0021737756 0.0013788106 0.0021373450 0.0013761626 0.5498259328 -0.8249916039
694375000 0.7422280283 -0.6427208076 0.0021348975 0.0013968906 0.0021045692 0.0013707838 0.5488752867 -0.8246313610
694687500 0.7415611811 -0.6431284572 0.0021294262 0.0013996310 0.0021134430 0.0013861058 0.5478601190 -0.8255589504
695000000 0.7406879727 -0.6443015590 0.0021174387 0.0013775449 0.0020566279 0.0013431613 0.5472352063 -0.8257548919
695312500 0.7423565325 -0.6424991887 0.0021330404 0.0014023589 0.0020804324 0.0013764947 0.5490787828 -0.8255477600
695625000 0.7417583823 -0.6423207583 0.0021181654 0.0013541920 0.0020987795 0.0013551897 0.5472650970 -0.8256574679
695937500 0.7402223186 -0.6438970273 0.0020651318 0.0013208138 0.0020655812 0.0013342765 0.5460463078 -0.8259259776
696250000 0.7411193759 -0.6433623457 0.0020267805 0.0013615299 0.0020115302 0.0013587390 0.5471382249 -0.8255928718
696562500 0.7407268133 -0.6439005095 0.0019929141 0.0013968102 0.0019760707 0.0013794368 0.5464380468 -0.8259883606
696875000 0.7414027123 -0.6438065150 0.0020111478 0.0014988281 0.0019884598 0.0014759279 0.5460123634 -0.8262263358
697187500 0.7400980178 -0.6455597180 0.0020363677 0.0014773491 0.0020183972 0.0014994573 0.5454928214 -0.8269088798
697500000 0.7413661746 -0.6440883841 0.0020220967 0.0015046174 0.0019934623 0.0015014839 0.5463453320 -0.8270762203
697812500 0.7402328099 -0.6449204201 0.0020833623 0.0015247985 0.0020421795 0.0015363888 0.5456513672 -0.8264010856
698125000 0.7409110061 -0.6449936526 0.0020781911 0.0015051650 0.0020443317 0.0014856920 0.5446517876 -0.8270902673
698437500 0.7408333319 -0.6451904125 0.0020994515 0.0015364136 0.0020653914 0.0015378659 0.5449633444 -0.8268184317
698750000 0.7404937334 -0.6455289175 0.0021193349 0.0015512868 0.0020854096 0.0015554547 0.5440734153 -0.8274262988
699062500 0.7395080068 -0.6461802252 0.0021909068 0.0015472892 0.0021627770 0.0015685648 0.5440907672 -0.8267367048
699375000 0.7402917437 -0.6457967544 0.0021785958 0.0015185427 0.0021649140 0.0015558916 0.5438632602 -0.8267624079
699687500 0.7401116042 -0.6464118869 0.0022364881 0.0014753620 0.0022166371 0.0014899619 0.5447575990 -0.8264491539
700000000 0.7393334374 -0.6475498748 0.0022333457 0.0014835316 0.0021739953 0.0014952634 0.5436761602 -0.8273993279
700312500 0.7396488602 -0.6473818545 0.0022221633 0.0014614532 0.002094627 0.0014590769 0.5442845205 -0.8277996600
700625000 0.7388958381 -0.6477914319 0.0022278651 0.0014355634 0.0022028874 0.0014362788 0.5438001205 -0.8286256420
700937500 0.7384158175 -0.6479440633 0.0022610271 0.0014195795 0.0022264284 0.0014492764 0.5430126520 -0.8282657611
701250000 0.7386258277 -0.6473929353 0.0022521958 0.0013905272 0.0022497024 0.0013753172 0.5422586730 -0.8295061540
701562500 0.7380402362 -0.6484825123 0.0022190043 0.0013200900 0.0021781648 0.0013057961 0.5430970070 -0.8297504849
701875000 0.7393654546 -0.6464215670 0.0021165252 0.0014505189 0.0020725364 0.0014912970 0.5430350017 -0.8289393474
702187500 0.7387227413 -0.6469152701 0.0022399788 0.0014111200 0.002025860 0.0014168767 0.5425333819 -0.8290476076
702500000 0.7366574852 -0.6493074372 0.0022588622 0.0013841966 0.0022341923 0.0013819218 0.5414496720 -0.8301157798
702812500 0.7374475210 -0.6489107484 0.0022433798 0.0013644636 0.0022314278 0.0013791804 0.5429392089 -0.8295450821
703125000 0.7372946328 -0.6484922762 0.0022843587 0.0013694856 0.0022548200 0.0013740128 0.5417788317 -0.8308197006
703437500 0.7375617971 -0.6491679613 0.0022278266 0.0013078183 0.0021980085 0.0013165767 0.5416370837 -0.8307477117
703750000 0.7371310180 -0.6501164696 0.0022843530 0.0012900995 0.0022424854 0.0012607850 0.5414568117 -0.8315093075
704062500 0.7377004976 -0.6491998140 0.0022406472 0.0012481679 0.0022215306 0.0012554568 0.5412618968 -0.8316736054
704375000 0.7370243374 -0.6500431500 0.0022125432 0.0012146998 0.0021683662 0.0012229887 0.5399315809 -0.8322453083
704687500 0.7363771754 -0.6504933402 0.0021722143 0.0012175219 0.0021419939 0.0012336583 0.5407683841 -0.8304933548
705000000 0.7366293037 -0.6504684996 0.0021490055 0.0012054386 0.0021336574 0.0011931221 0.5406654782 -0.8319433159
705312500 0.7356796522 -0.6510684770 0.0021268401 0.0011929404 0.0020642213 0.0012228360 0.5409354365 -0.8318808329
705625000 0.7343991550 -0.6498269317 0.0020700390 0.0012782125 0.0020374117 0.0013180220 0.5396186800 -0.8329596910
705937500 0.7357005979 -0.6505720489 0.0021786024 0.0012807494 0.0021490255 0.0012818139 0.5399848354 -0.8330790533
706250000 0.7358678833 -0.6501042964 0.0021690792 0.0012571953 0.0021397095 0.0012525380 0.5395664934 -0.8330833212
706562500 0.7352212197 -0.6505750036 0.0021374820 0.0012136198 0.0021065496 0.0012374703 0.5389011271 -0.8335073198
706875000 0.7352209318 -0.6510073178 0.0021069208 0.0012444093 0.0020948805 0.0012498668 0.5383486070 -0.8340072557
707187500 0.7349394196 -0.6504931735 0.0021268401 0.0012329952 0.0020962883 0.0012457576 0.5384824298 -0.8339245654
707500000 0.7341536958 -0.6521259717 0.0021102128 0.0012031204 0.0020915094 0.0012162031 0.5367139454 -0.8348536313
707812500 0.7346685802 -0.6518235037 0.0020803327 0.0012131434 0.0020790238 0.0012086523 0.5371496350 -0.8348684312
708125000 0.7348347846 -0.6520889344 0.0020890336 0.0012076477 0.0020518324 0.0012177983 0.5365263679 -0.8353185676
708437500 0.7350365929 -0.6522765684 0.0020530379 0.0012165114 0.0020161060 0.0012282872 0.5366334476 -0.8352175999
708750000 0.7340756610 -0.6524444357 0.0020947882 0.0013012239 0.0020991745 0.0013102133 0.5364272064 -0.8347589151
709062500 0.7353024121 -0.6522539236 0.0021017956 0.0012463046 0.0020433289 0.0012463609 0.5364933144 -0.8352715817
709375000 0.7345652740 -0.6534008092 0.0020592399 0.0012670867 0.0020422476 0.0012948452 0.5351889668 -0.8362726722
709687500 0.7326926693 -0.6533076267 0.0020615629 0.0012425854 0.0020282135 0.0012684590 0.5341559112 -0.8354308387
710000000 0.7330456634 -0.6541387862 0.0021136129 0.0012486453 0.0020876928 0.0012222488 0.5348063917 -0.8365377648
710312500 0.7337262535 -0.6541196526 0.0021087568 0.0012442293 0.0020750078 0.0012655471 0.5351622567 -0.8369940069
710625000 0.7331392466 -0.6541961719 0.0020813015 0.0012177905 0.0020580986 0.0012380127 0.5347442614 -0.8362465341
710937500 0.7327738195 -0.6541287376 0.0021072175 0.0012406175 0.0020334737 0.0012371031 0.5342116009 -0.8371251340
711250000 0.7326775435 -0.6538650374 0.0020898317 0.0012620960 0.0020480887 0.0012851327 0.5335548147 -0.8370743471
711562500 0.7333652496 -0.6549772520 0.0020703500 0.0012323359 0.0020301904 0.0012365213 0.5335624897 -0.8376668282
711875000 0.7326985170 -0.6554930294 0.0020796853 0.0012734396 0.0020314167 0.0012754945 0.5324752671 -0.8380268849
712187500 0.7324514594 -0.6566234552 0.0020763880 0.0013078881 0.0020435691 0.0013376842 0.5317292029 -0.8387175988
712500000 0.7326565871 -0.6562437018 0.0021422582 0.0013163432 0.0021213238 0.0013270861 0.5325852780 -0.8383417829
712812500 0.7314294089 -0.6567520163 0.0021641392 0.0012526118 0.0021379361 0.0012439239 0.5306876941 -0.8386911845
713125000 0.7322424016 -0.6564152847 0.0020874355 0.0009933877 0.0019797475 0.0010382985 0.5316559245 -0.8386344905
713437500 0.7320156009 -0.6565610375 0.0020406116 0.0012314053 0.0020355107 0.0012424438 0.5311446442 -0.8390190071
713750000 0.7311861636 -0.6566901921 0.0020406166 0.0012388284 0.0020438850 0.0012324497 0.5294781216 -0.8388721358
714062500 0.7304960858 -0.6580589595 0.0020455941 0.0011766032 0.0020233151 0.0012118180 0.5292379700 -0.8394094184
714375000 0.7302543218 -0.6579424945 0.0020087497 0.0012453007 0.0020125179 0.0012534622 0.5295679557 -0.8391375673
714687500 0.7299022614 -0.6580869185 0.0020490314 0.0012284346 0.0020111943 0.0012205869 0.5292334646 -0.8391641242
715000000 0.7295632753 -0.6590788419 0.0020619419 0.0012997714 0.0020442091 0.0013106911 0.5284813956 -0.8401000855
715312500 0.7286837653 -0.6593675000 0.0020729073 0.0013024312 0.0020504214 0.0012962022 0.5281021364 -0.8402710198
715625000 0.7298932616 -0.6579046894 0.0020729868 0.0013252074 0.0020510960 0.0013110520 0.5287410670 -0.8397144982
715937500 0.7280638509 -0.6583296684 0.0021010704 0.0013085521 0.0020667437 0.0013076357 0.5273862631 -0.8397730162
716250000 0.7280931518 -0.6584633906 0.0020959514 0.0012783652 0.0020933693 0.0012989919 0.5274924786 -0.8396577192
716562500 0.7284926212 -0.6592850134 0.0020944637 0.0012765063 0.0020434274 0.0012948888 0.5267305849 -0.8408206891
716875000 0.7281316187 -0.6596087607 0.0021066113 0.0012768077 0.0020661388 0.0013091509 0.5259691736 -0.8406229635
717187500 0.7279193407 -0.6599840045 0.0021288773 0.0013389672 0.0020985202 0.0013376331 0.5255134200 -0.8410237413
717500000 0.7271596260 -0.6605417758 0.0021148280 0.0013010839 0.0020962680 0.0013346271 0.5241268197 -0.8407270920
717812500 0.7275150549 -0.6606999692 0.0021221455 0.0013392194 0.0020967128 0.0013356616 0.5259990102 -0.8407952576
718125000 0.7263719347 -0.6603574644 0.0021284994 0.0013397400 0.0021073617 0.0013630687 0.5240283955 -0.8407730901
718437500 0.7266982015 -0.6602645679 0.0021744409 0.0013731745 0.0021360341 0.0013681942 0.5234512534 -0.8411988595
718750000 0.7270517205 -0.6586215686 0.0022139572 0.0013425319 0.0022017284 0.0013650164 0.5246294246 -0.8400494729
719062500 0.7245934280 -0.6613173206 0.0022358123 0.0013508188 0.0022292551 0.0013571544 0.5226786420 -0.8410425551
719375000 0.7252814557 -0.6609707315 0.0023621513 0.0013421018 0.0023174659 0.0013607977 0.5221997622 -0.8409082792
719687500 0.7251514230 -0.6609206716 0.0023522519 0.0012048388 0.0022944192 0.0012243944 0.5229352368 -0.8407377724
720000000 0.7257303840 -0.6609754448 0.0023248899 0.0012415691 0.0022976508 0.0012514162 0.5234245401 -0.8402871666
720312500 0.7258364949 -0.6597760475 0.0023433285 0.0012094097 0.0023345004 0.0012071693 0.5221792282 -0.8399440163
720625000 0.7259932462 -0.6610224108 0.0023264652 0.0011237716 0.0023002664 0.0011636505 0.5229656754 -0.8404895890
720937500 0.7242320904 -0.6612488410 0.0023131896 0.0010833263 0.0022876081 0.0011079695 0.5214319941 -0.8396274963
721250000 0.7243817916 -0.6622296922 0.0022810605 0.0010632672 0.0022724485 0.0010817601 0.5220835455 -0.8401789127
721562500 0.7245355211 -0.6620500264 0.0022429504 0.0010693409 0.0021991501 0.0010789609 0.5224405764 -0.8404893660
721875000 0.7229365830 -0.6629074755 0.0022290046 0.0010449376 0.0022220410 0.0010757602 0.5228973153 -0.8409327582
722187500 0.7243944174 -0.6617384821 0.0022725805 0.0010552762 0.0022397531 0.0010733190 0.5236103271 -0.8409786797
722500000 0.7228020215 -0.6624491735 0.0022750461 0.0010234967 0.0022635897 0.0010422973 0.5225498389 -0.8414667398
722812500 0.7227053358 -0.6621423071 0.0022518615 0.0010033059 0.0022712468 0.0009984491 0.5234518842 -0.8414049122
723125000 0.7227653713 -0.6620665330 0.0022255090 0.0009998327 0.002084554 0.0010014116 0.5227251429 -0.8425701018
723437500 0.7224750947 -0.6617619273 0.0021394289 0.0009370695 0.0021134918 0.0009470089 0.5219058178 -0.8429966589
723750000 0.7217727203 -0.6623885367 0.0021598548 0.0010092281 0.0021275627 0.0010039382 0.5206033203 -0.8435841255
724062500 0.7224302131 -0.6619349624 0.0021688723 0.0010182817 0.0021331972 0.0010371048 0.5201796166 -0.8434505705
724375000 0.7229657373 -0.6615102228 0.0021937366 0.0009758177 0.0021590642 0.0009979551 0.5204601408 -0.8440366445
724687500 0.7235289644 -0.6620357320 0.0021257430 0.0009537457 0.0021274126 0.0009549181 0.5205670804 -0.8434625645
725000000 0.7230942185 -0.6636367117 0.0020968297 0.0009635340 0.0020569642 0.0009609812 0.5206210264 -0.8439308550
725312500 0.7240085476 -0.6623584617 0.0020708208 0.0009764542 0.0020562654 0.0009806443 0.5207096726 -0.8448746455
725625000 0.7226185381 -0.6638783544 0.0020686729 0.0009518978 0.0020468996 0.0009910882 0.5187227999 -0.8456252055
725937500 0.7217017449 -0.6651108094 0.0020598757 0.0010092664 0.0020259659 0.0010037494 0.5188232998 -0.8451434988
726250000 0.7217220844 -0.6655857572 0.0020358914 0.0009886375 0.0019916062 0.0010074391 0.5179238189 -0.8463883676
726562500 0.7229191988 -0.6634964415 0.0020654593 0.0010501020 0.0020452193 0.0010541742 0.5192554904 -0.8458234077
726875000 0.7202531242 -0.6663213186 0.0020688104 0.0010405163 0.0020264923 0.0010618111 0.5168907044 -0.8470695334
727187500 0.7223306783 -0.6650872498 0.0020765231 0.0010696474 0.0020551434 0.0010683136 0.5177469058 -0.8471141311
727500000 0.7213663497 -0.6653762577 0.0021201935 0.0010563765 0.0020644338 0.0010626302 0.5172775888 -0.8473997851
727812500 0.7218580228 -0.6660950563 0.0021439427 0.0010464262 0.0021038794 0.0010572985 0.5175114522 -0.8478086205
728125000 0.7204054867 -0.6660498713 0.0021301491 0.0010599341 0.0021101625 0.0010797490 0.5153826569 -0.8479418410
728437500 0.7211406040 -0.6658020383 0.0021473664 0.0010458259 0.0021307450 0.0010711548 0.5152287834 -0.8489386223
728750000 0.7204304360 -0.6669507793 0.0021471006 0.0010560722 0.0021191890 0.0010434105 0.5145010663 -0.8486845523
729062500 0.7204331993 -0.6671378414 0.0021369788 0.0010020901 0.0021244709 0.0010474517 0.5140888489 -0.8484366561
729375000 0.7210809443 -0.6676558631 0.0021945404 0.0010071113 0.0022141828 0.0010193795 0.5142320890 -0.8489131109
729687500 0.7202689057 -0.6674924741 0.0021913844 0.0009714750 0.0021703905 0.0010150102 0.5125740410 -0.8488889967
730000000 0.7198930638 -0.6672407508 0.0022016213 0.0009466666 0.0021939285 0.0009492723 0.5122561509 -0.8482244511
730312500 0.7192688835 -0.6689598169 0.0021639644 0.0009128440 0.0021553816 0.0009179623 0.5116384584 -0.8492716309
730625000 0.7177582177 -0.6699640060 0.0021586194 0.0009146346 0.0021321730 0.0009319763 0.5102933780 -0.8490087427
730937500 0.7172991242 -0.6697026048 0.0021876835 0.0008990513 0.0021809894 0.0009451319 0.5094355642 -0.8500047152
731250000 0.7149631913 -0.6673010451 0.0021808439 0.0008122647 0.0021912320 0.0008222902 0.5100461532 -0.8489948399
731562500 0.7194230115 -0.6669320049 0.0021332137 0.0007873902 0.0021247635 0.0008169926 0.5088493311 -0.8475292128
731875000 0.7198906506 -0.6675034414 0.0021099128 0.0007729491 0.0020702815 0.0007833299 0.5094132268 -0.8473044761
732187500 0.7180221596 -0.6698738767 0.0020460058 0.0007493601 0.0020234798 0.0007910996 0.5086504676 -0.8474117158
732500000 0.7177483616 -0.6699204149 0.0020077341 0.0007656697 0.0020032785 0.0007921861 0.5088886875 -0.8474377875
732812500 0.7181348587 -0.6697589868 0.0020042620 0.0007625356 0.0019654797 0.0007857331 0.5086673397 -0.8479452030
733125000 0.7170015207 -0.6708172668 0.0019584730 0.0007809818 0.0019437974 0.0007971855 0.5091546955 -0.8472728670
733437500 0.7163639985 -0.6707699753 0.0019361079 0.0008131304 0.0018886930 0.0008338559 0.5088163113 -0.8478615583
733750000 0.7182937992 -0.6709484183 0.0019104232 0.0008035966 0.0018806445 0.0008218301 0.5092357573 -0.8483283174
734062500 0.7178364665 -0.6709406376 0.0018648175 0.0008023080 0.0018414918 0.0007923235 0.5088356578 -0.8476660327
734375000 0.7169354617 -0.6718068843 0.0017874275 0.0007938051 0.0017777366 0.0007963490 0.5084605036 -0.8477277409
734687500 0.7163781685 -0.6724513181 0.0017377146 0.0008639972 0.0017226740 0.0008858829 0.5064354625 -0.8485673175
735000000 0.7162961287 -0.6722148363 0.0017256042 0.0009793463 0.0017257383 0.0010145326 0.5069695909 -0.8468115463
735312500 0.7149760654 -0.6735347193 0.0018000293 0.0010054014 0.0017947158 0.0010098542 0.5049750357 -0.8490735242
735625000 0.7155409564 -0.6731008911 0.0018317144 0.0010377570 0.0018060280 0.0010562505 0.5085779650 -0.8464302959
735937500 0.7141754638 -0.6727929392 0.0018483720 0.0010647929 0.0018443426 0.0010971936 0.5066274481 -0.8476769706
736250000 0.7147422655 -0.6731947616 0.0018968441 0.0010271543 0.0018770412 0.0010466257 0.5073273781 -0.8473939395
736562500 0.7160410773 -0.6728616690 0.0018503067 0.0010442151 0.0018511407 0.0010731483 0.5075275610 -0.8478812345
736875000 0.7152460403 -0.6737824809 0.0018590722 0.0011264610 0.0018509112 0.0011748234 0.5070867903 -0.8477119934
737187500 0.7129477421 -0.6754553188 0.0019526821 0.0011905069 0.0019226650 0.0012165291 0.5062012528 -0.8484161985
737500000 0.7136000812 -0.6749209717 0.0020782443 0.0011324191 0.0020562394 0.0011515063 0.5081655530 -0.8474737756
737812500 0.7136293072 -0.6749713950 0.0020608654 0.0010416838 0.0020504811 0.0010370686 0.5096021355 -0.8483971079
738125000 0.7122647696 -0.6757451101 0.0020063113 0.0009814516 0.0019954119 0.0009926716 0.5081117852 -0.8501420293
738437500 0.7114912391 -0.6768924776 0.0019497463 0.0010104933 0.0019048028 0.0010433580 0.5082613815 -0.8502056454
738750000 0.7118480282 -0.6764307837 0.0019344690 0.0010736298 0.0019261438 0.0010804064 0.5083482503 -0.8513027412
739062500 0.7104510653 -0.6764208220 0.0019457124 0.0010860028 0.0019417360 0.0011053342 0.5075283412 -0.8524302116
739375000 0.7093374491 -0.6760793293 0.0020074980 0.0011009856 0.0020190187 0.0011175433 0.5069701426 -0.8525419428
739687500 0.7090861203 -0.6754066275 0.0020326931 0.0010751530 0.0020203208 0.0010666839 0.5060155429 -0.8529180624
740000000 0.7091766569 -0.6753409955 0.0020073438 0.0010216345 0.0019987173 0.0010571153 0.5051551301 -0.8537050092
740312500 0.7085315323 -0.6758165610 0.0020007953 0.0010919190 0.0019646351 0.0011481070 0.5042343912 -0.8531141676
740625000 0.7090573741 -0.6757998698 0.0020970298 0.0010702199 0.0020869973 0.0011048465 0.5044652926 -0.8535889498
740937500 0.7094571418 -0.6763372264 0.0020985365 0.0010907910 0.0020824725 0.0011159150 0.5055239174 -0.8537814880
741250000 0.7097593914 -0.6756974194 0.0021663557 0.0011124019 0.0021303860 0.0011232866 0.5047997370 -0.8537954410
741562500 0.7092738379 -0.6775446763 0.0021861635 0.0010397805 0.0022024650 0.0010703809 0.5039834520 -0.8547296807
741875000 0.7082398308 -0.6774068859 0.0021964289 0.0009717932 0.0021870446 0.0010043301 0.5036729572 -0.8551008602
742187500 0.7080727450 -0.6769118339 0.0021707002 0.0009797746 0.0021535107 0.0009839145 0.5032375676 -0.8553190122
742500000 0.7075964992 -0.6764042666 0.0021808580 0.0009529821 0.0021976240 0.0010091624 0.5024033969 -0.8566446161
742812500 0.7062807169 -0.6778353431 0.0021945146 0.0008769409 0.0021829894 0.0008956737 0.5020694780 -0.8557964100
743125000 0.7076415507 -0.6759224537 0.0021186782 0.0008684580 0.0021931826 0.0008916478 0.5019805022 -0.8568161381
743437500 0.7067450696 -0.6761538860 0.0021608568 0.0008384568 0.0021684981 0.0008647591 0.5015687803 -0.8563269697
743750000 0.7044672645 -0.6777772353 0.0021510516 0.0007969876 0.0021512229 0.0008235239 0.4998775729 -0.8570913600
744062500 0.7056908746 -0.6771914368 0.0021480727 0.0007973153 0.0021385045 0.0008185666 0.4992086352 -0.8571833346
744375000 0.7066759046 -0.6761597397 0.0021262673 0.0007855982 0.0021028311 0.0008006012 0.5005775047 -0.8565257122
744687500 0.7054548419 -0.6765964917 0.0020809561 0.0007497593 0.0020913085 0.0007729402 0.4983939944 -0.8580887550
745000000 0.7065366395 -0.6757977325 0.0020779365 0.0007424836 0.0020565006 0.0007777130 0.4990885403 -0.8573452207
745312500 0.7076201512 -0.6760289354 0.0020419664 0.0007562416 0.0020477536 0.0008009082 0.4994199230 -0.8571078864
745625000 0.7079620999 -0.6755366683 0.0020109773 0.0007880235 0.0020314871 0.0008183413 0.4985437914 -0.8575835044
745937500 0.7081174084 -0.6770814049 0.0020527147 0.0007776337 0.0020287731 0.0007930548 0.4999917094 -0.8570332467
746250000 0.7076913994 -0.6785897150 0.0020305901 0.0007535029 0.0020106954 0.0008038214 0.4977639917 -0.8586217492
746562500 0.7069164283 -0.6786048211 0.0020355230 0.0007640272 0.0020133090 0.0007961388 0.4973974367 -0.8589417439
746875000 0.7067725586 -0.6790918164 0.0020323223 0.0007591064 0.0020284866 0.0008122263 0.4972114094 -0.8586249667
747187500 0.7070770211 -0.6796693752 0.0020149907 0.0006940560 0.0020300942 0.0007368947 0.4970550288 -0.8593554531
747500000 0.7060305772 -0.6797149936 0.0019646413 0.0007217562 0.0019609827 0.0007593389 0.4967735302 -0.8586684214
747812500 0.7064026314 -0.6802980450 0.0018933583 0.0008010096 0.0019014267 0.0008334834 0.4958486518 -0.8599019071
748125000 0.7056221065 -0.6806930463 0.0019586836 0.0008449692 0.0019699776 0.0008831774 0.4946541433 -0.8592517738
748437500 0.7064441318 -0.6803920871 0.0020399614 0.0008223497 0.0020769947 0.0008810742 0.4953425197 -0.8600482227
748750000 0.7045576654 -0.6813287059 0.0020313185 0.0008048123 0.0020484090 0.0008343070 0.4935039718 -0.8594848039
749062500 0.7054799631 -0.6813878285 0.0020219887 0.0007697201 0.0020344226 0.0008014940 0.4934399942 -0.8609507462
749375000 0.7054798750 -0.6813868474 0.0019896005 0.0007886963 0.0020276982 0.0008257327 0.4944873953 -0.8601861825
749687500 0.7047146571 -0.6823885207 0.0020147321 0.0007627241 0.0020159009 0.0008059700 0.4934682647 -0.8606160057
750000000 0.7051096207 -0.6819920834 0.0020133268 0.0007685963 0.0020361212 0.0007927215 0.4929054783 -0.8615015152
750312500 0.7068524929 -0.6818860324 0.0020341529 0.0008038402 0.0020538329 0.0007872496 0.4942682673 -0.8615328464
750625000 0.7025038074 -0.6840050577 0.0020922424 0.0007618273 0.0020966096 0.0008119602 0.4922911590 -0.8606901112
750937500 0.7039004301 -0.6833667790 0.0020872244 0.0007098015 0.0020939791 0.0007267985 0.4901029281 -0.8628068000
751250000 0.7036613710 -0.6845225060 0.0020609485 0.0006795345 0.0020813243 0.0007333368 0.4916252319 -0.8624835276
751562500 0.7028559147 -0.6851376261 0.0020507075 0.0007055947 0.0020632557 0.0007578038 0.4904559907 -0.8628076136
751875000 0.7023837852 -0.6850393838 0.0020592061 0.0007020608 0.0020887336 0.0007382805 0.4902849474 -0.8623416918
752187500 0.7021013577 -0.6847302767 0.0021073410 0.0006793202 0.0021264419 0.0007090893 0.4896770132 -0.8626769489
752500000 0.7025779036 -0.6849681783 0.0020863317 0.0006470867 0.0021054283 0.0006656024 0.4905616733 -0.8624248141
752812500 0.7021163000 -0.6857117848 0.0020893054 0.0005709786 0.0021230033 0.0006374989 0.4899646667 -0.8634036037
753125000 0.7015969857 -0.6857123001 0.0020492168 0.0005633989 0.0020543806 0.0006227132 0.4887416725 -0.8638282036
753437500 0.7015557426 -0.6865938187 0.0020213692 0.0005906626 0.0020529361 0.0006204904 0.4880828971 -0.8654064016
753750000 0.7011939205 -0.6867029961 0.0020201478 0.0005537517 0.0020532554 0.0005830750 0.4892740884 -0.8644552909
754062500 0.7012961462 -0.6871634232 0.0020203246 0.0005363092 0.0020393375 0.0005674502 0.4863887668 -0.8655277356
754375000 0.6996034360 -0.6873247258 0.0019829093 0.0005223854 0.0020030253 0.0005375930 0.4870648532 -0.8643871067
754687500 0.7007387276 -0.6878198362 0.0019422520 0.0005373987 0.0020033239 0.0005521860 0.4862417547 -0.8657487841
755000000 0.7003190743 -0.6873257183 0.0019587117 0.0004930209 0.0020169277 0.0005095939 0.4861312573 -0.8651605019
755312500 0.6983211086 -0.6888722837 0.0019302997 0.0005103483 0.0019623183 0.0005598870 0.4843246913 -0.8663491282
755625000 0.6994576727 -0.6887517806 0.0018918744 0.0005264496 0.0019290639 0.0005336975 0.4852306490 -0.8660434319
755937500 0.6986263021 -0.6891651342 0.0018708018 0.0005359065 0.0019263829 0.0005683684 0.4847581055 -0.8660562978
756250000 0.6991137033 -0.6893596799 0.0019232319 0.0005343733 0.0019245877 0.0005468685 0.4848816070 -0.8661792493
756562500 0.6990717251 -0.6903855333 0.0018735802 0.0005658720 0.0019002525 0.0005806406 0.4843623458 -0.8669848931
756875000 0.6987836457 -0.6898996129 0.0018987992 0.0005262517 0.0019408048 0.0005818979 0.4843070487 -0.8668863031
757187500 0.6975780162 -0.6912540815 0.0019017781 0.0005393220 0.0019329206 0.0005710311 0.4833083794 -0.8679165558
757500000 0.6973269726 -0.6911471887 0.0019102553 0.0005405362 0.0019608215 0.0005550218 0.4828606464 -0.8683048429
757812500 0.6971515410 -0.6920100882 0.0019312453 0.0005243390 0.0019861917 0.0005368681 0.4823532472 -0.8681972918
758125000 0.6967859109 -0.6915111304 0.0019056216 0.0004988983 0.0019349893 0.0005324337 0.4823741960 -0.8677792671
758437500 0.6960357140 -0.6926248481 0.0018852841 0.0004828737 0.0019271254 0.0004816413 0.4816604899 -0.8693001048
758750000 0.6964388267 -0.6922248407 0.0018863775 0.0004640334 0.0019324718 0.0004743500 0.4818348632 -0.8686750275
759062500 0.6940649206 -0.6923341006 0.0018726785 0.0004951692 0.0018944778 0.0005139564 0.4810201472 -0.8683321095
759375000 0.6935840606 -0.6926014891 0.0019193975 0.0004688993 0.0019558921 0.0004934321 0.4797350903 -0.8686882725
759687500 0.6933595843 -0.6934939549 0.0019318860 0.0004468528 0.0019844671 0.0004430498 0.4796781498 -0.8689029512
760000000 0.6921292195 -0.6933311842 0.0019059418 0.0003770454 0.0019605148 0.0004059251 0.4774871795 -0.8690411435
760312500 0.6928267274 -0.6934427027 0.0018612773 0.0003614750 0.0019263841 0.0003836066 0.4774013283 -0.8704349193
760625000 0.6915840286 -0.6934878755 0.0018660440 0.0003702337 0.0019103455 0.0003687452 0.4773124363 -0.8704472313
760937500 0.6925427816 -0.6920853288 0.0018519768 0.0003359003 0.0018921141 0.0003529499 0.4779627825 -0.8692934679
761250000 0.6913413139 -0.6935544277 0.0018275109 0.0003096680 0.0018754742 0.0003256796 0.4765262806 -0.8708121662
761562500 0.6912547731 -0.6912821270 0.0017709290 0.0002912313 0.0018052867 0.0002752049 0.4755943540 -0.8702305778
761875000 0.6916554735 -0.6938457660 0.0017619643 0.0003159602 0.0017967113 0.0003178307 0.4761707943 -0.8700875790
762187500 0.6922635305 -0.6937139515 0.0017260300 0.0002791914 0.0017815496 0.0002827881 0.4748001363 -0.8717684789
762500000 0.6905405526 -0.6933514300 0.0017271588 0.0002801170 0.0017636171 0.0002537092 0.4744743055 -0.8712462270
762812500 0.6908242318 -0.6935169560 0.0016764081 0.0002278000 0.0017127563 0.0002489006 0.4733743837 -0.8713954835
763125000 0.6894012455 -0.6949183368 0.0016166275 0.0002660705 0.0016819883 0.0002697135 0.4725142430 -0.8722956781
763437500 0.6911991561 -0.6939700642 0.0015688416 0.0002137715 0.0016638802 0.0002207283 0.4723975948 -0.8724386677
763750000 0.6904461401 -0.6943103843 0.0015313475 0.0002422268 0.0015752997 0.0002446825 0.4714187173 -0.8724790519
764062500 0.6888702813 -0.6946382895 0.0014953194 0.0002872574 0.0015540794 0.0002833352 0.4708896078 -0.8712952070
764375000 0.6883795209 -0.6947146270 0.0014626665 0.0003223773 0.0015079325 0.0003066053 0.4689835635 -0.8710217091
764687500 0.6881640588 -0.6955415461 0.0014722543 0.0003050791 0.0015206706 0.0003268939 0.4682778535 -0.8712982845
765000000 0.6888559767 -0.6967500080 0.0014332636 0.0002916204 0.0014856711 0.0003154598 0.4685038073 -0.8723815260
765312500 0.6880633684 -0.6954340639 0.0013527405 0.0003166946 0.0014010917 0.0002923274 0.4692082529 -0.8714413370
765625000 0.6872538727 -0.6954476182 0.0013101075 0.0004095138 0.0013124416 0.0003873558 0.4682408455 -0.8712076414
765937500 0.6880123980 -0.6959070549 0.0012738396 0.0004420902 0.0013087819 0.0004422863 0.4690315628 -0.8718573410
766250000 0.6870207850 -0.6959728435 0.0012205176 0.0005610400 0.0012743992 0.0005246483 0.4672812775 -0.8711633529
766562500 0.6875476208 -0.6945668462 0.0013060710 0.0006105561 0.0013242443 0.0005768920 0.4671117957 -0.8706450589
766875000 0.6867609077 -0.6963582349 0.0012825266 0.0006834152 0.0013276941 0.0006525379 0.4671788158 -0.8714107912
767187500 0.6870739494 -0.6957993007 0.0012683871 0.0008132429 0.0013195661 0.0007821385 0.4669209377 -0.8710622321
767500000 0.6865554544 -0.6963919088 0.0014628253 0.0007984825 0.0015055605 0.0008018318 0.4662682010 -0.8709064518
767812500 0.6871215722 -0.6972382007 0.0013944371 0.0007834604 0.0014331599 0.0007682307 0.4652490521 -0.8718318990
768125000 0.6859338835 -0.6972673767 0.0014506979 0.0009880992 0.0014845875 0.0009580972 0.4652439908 -0.8701254610
768437500 0.6863261006 -0.6971864394 0.0016961555 0.0009397209 0.0017544352 0.0009198515 0.4664763013 -0.8704877553
768750000 0.6856418714 -0.6983557523 0.0016739247 0.0007969325 0.0017128567 0.0007796199 0.4651050802 -0.8720914406
769062500 0.6852680974 -0.6985387727 0.0016600232 0.0007476650 0.0017353104 0.0007645009 0.4653895514 -0.8713268794
769375000 0.6863098496 -0.6982977411 0.0017200657 0.0007215229 0.0017556595 0.0007017457 0.4656581049 -0.8715034868
769687500 0.6852280378 -0.6983948048 0.0016977611 0.0007357736 0.0017472898 0.0007181813 0.4645828827 -0.8721314138
770000000 0.6850709466 -0.6988662980 0.0017273332 0.0007822424 0.0017580801 0.0007542290 0.4632895698 -0.8708930779
770312500 0.6852883671 -0.6992548352 0.0019160231 0.0007811157 0.0019533848 0.0007515059 0.4651920431 -0.8703830163
770625000 0.6840472025 -0.7000181759 0.0019104636 0.0005610987 0.0019456073 0.0005670117 0.4661185281 -0.8710600838
770937500 0.6845393033 -0.6993305190 0.0018378332 0.0005198554 0.0018599920 0.0004705808 0.4656801392 -0.8717028898
771250000 0.6838795196 -0.7013210371 0.0017498183 0.0004907186 0.0018013737 0.0004614750 0.4646578924 -0.8733884209
771562500 0.6838998457 -0.7016694392 0.0017145355 0.0005485680 0.0017726311 0.0005254488 0.4643467247 -0.8736774322
771875000 0.6828268049 -0.7019022179 0.0017889493 0.0005988249 0.0018104806 0.0005381443 0.4629974992 -0.8739123392
772187500 0.6826285537 -0.7020632144 0.0018162698 0.0005496974 0.0018697224 0.0005008976 0.4623383186 -0.8747147270
772500000 0.6834614727 -0.7017479455 0.0018531913 0.0005183988 0.0018962033 0.0004768747 0.4649776509 -0.8735875014
772812500 0.6815062082 -0.7035411975 0.0018893771 0.0004482140 0.0018919671 0.0004331765 0.4624329895 -0.8748954628
773125000 0.6829151504 -0.7017700584 0.0018888529 0.0003913001 0.0019462005 0.0003394317 0.4632026557 -0.8753462441
773437500 0.6821276923 -0.7022981769 0.0019027750 0.0003495322 0.0019544708 0.0003120955 0.4633417770 -0.8753909354
773750000 0.6814142325 -0.7036964628 0.0018713124 0.0002259232 0.0019099918 0.0001743625 0.4618190835 -0.8768917802
774062500 0.6832182786 -0.7078654568 0.0017842746 0.0001459774 0.0018532825 0.0001491975 0.4596208204 -0.8782962161
774375000 0.6817595682 -0.7035925399 0.0017211048 0.0001578950 0.0017745961 0.0001378265 0.4621487256 -0.8780890276
774687500 0.6797519906 -0.7050542494 0.0016952198 0.0001598712 0.0017178205 0.0001145258 0.4604766989 -0.8787004696
775000000 0.6806143379 -0.7057218217 0.0016701477 0.0001551065 0.0017028058 0.0001072980 0.4597333433 -0.8793197589
775312500 0.6789510670 -0.7054246534 0.0015990592 0.0000998673 0.0016557258 0.0000599865 0.4585558914 -0.8789645732
775625000 0.6797799614 -0.7061947314 0.0015739644 0.0000929643 0.0016056633 0.0000668692 0.4592254025 -0.8792785779
775937500 0.6786896529 -0.7059633860 0.0015514999 0.0000703989 0.0015820180 0.0000206613 0.4575580133 -0.8796736762
776250000 0.6795097610 -0.7057144801 0.0014429691 0.0000805349 0.0014652120 0.0000291888 0.4572527300 -0.8805317053
776562500 0.6784531783 -0.7077379700 0.0013908966 0.0000617492 0.0014099340 0.0000102050 0.4559493154 -0.8818873052
776875000 0.6783072071 -0.7072756208 0.0012387799 0.0000745764 0.0012746449 0.0000540168 0.4546716577 -0.8812840211
777187500 0.6781224775 -0.7086090616 0.0012143051 0.0002305565 0.0012590414 0.0001852989 0.4559562752 -0.8813419043
777500000 0.6766519553 -0.7090074499 0.0012447990 0.0002960070 0.0012689502 0.0002236473 0.4531644822 -0.8812588029
777812500 0.6772860641 -0.7068760311 0.0012334999 0.0003316442 0.0012451990 0.0002731255 0.4539446490 -0.8799649947
778125000 0.6767840038 -0.7076134879 0.0012358960 0.0003428011 0.0012816133 0.0002966366 0.4531468897 -0.8804847599
778437500 0.6752769811 -0.7098348392 0.0012455554 0.0004598289 0.0012689888 0.0003832122 0.4508908617 -0.8819628290
778750000 0.6748378786 -0.7092664028 0.0012525458 0.0004426835 0.0012636036 0.0004025214 0.4502776932 -0.8811201783
779062500 0.6744614036 -0.7093362574 0.0012340980 0.0005848068 0.0012529658 0.0005338670 0.4498348562 -0.8808387614
779375000 0.6746318519 -0.7097988066 0.0013643325 0.0006647048 0.0013949715 0.0005842273 0.4498110175 -0.8816024687
779687500 0.6751090758 -0.7097914535 0.0014491284 0.0006041885 0.0014753900 0.0005227795 0.4487732752 -0.8813860373
780000000 0.6738228069 -0.7112649525 0.0014732184 0.0006024937 0.0014922707 0.0005589480 0.4492783125 -0.8817092960
780312500 0.6746502105 -0.7109212294 0.0015329383 0.0005858315 0.0015495236 0.0005151486 0.4494585596 -0.8805332057
780625000 0.6719271195 -0.7121128303 0.0015764783 0.0005628657 0.0015602811 0.0005055898 0.4474029214 -0.8801789311
780937500 0.6725600956 -0.7126893037 0.0016011750 0.0005911327 0.0016265137 0.0005175391 0.4466315418 -0.8801038608
781250000 0.6708327046 -0.7126456522 0.0016361641 0.0005005598 0.0016767244 0.0004449734 0.4490529086 -0.8798835421
781562500 0.6716063806 -0.7122515128 0.0016759403 0.0004582300 0.0017308579 0.0004073115 0.4470304291 -0.8801787010
781875000 0.6702071457 -0.7126435874 0.0016958236 0.0003963371 0.0017259738 0.0003511111 0.4488074264 -0.8810529688
782187500 0.6697599920 -0.7127820890 0.0017071012 0.0003416064 0.0017153704 0.0002662687 0.4497855027 -0.8811275164
782500000 0.6691534411 -0.7121467609 0.0016658649 0.0002695463 0.0016908616 0.0002379673 0.4474568632 -0.8814313838
782812500 0.6690324943 -0.7132751008 0.0016820721 0.0002914263 0.0016949459 0.0002226324 0.4465537404 -0.8826159370
783125000 0.6694184494 -0.7136061188 0.0016754948 0.0002232391 0.0016873384 0.0001634632 0.4467526718 -0.8827356259
783437500 0.6689955963 -0.7137324842 0.0016382707 0.0001972164 0.0016613633 0.0001273261 0.4469812056 -0.8832442405
783750000 0.6688990429 -0.7136038387 0.0016171779 0.0001641805 0.0016550997 0.0000974056 0.4447327671 -0.8841342714
784062500 0.6679054439 -0.7142832264 0.0016269722 0.0001261262 0.0016263718 0.0000698820 0.4444461820 -0.8839283849
784375000 0.6690426034 -0.7143981747 0.0016178903 0.0001083008 0.0015977771 0.0000499910 0.4450727995 -0.8841906596
784687500 0.6666370598 -0.7140614261 0.0015957787 0.0000536273 0.0016015582 0.0000047190 0.4442644928 -0.8823554993
785000000 0.6651574702 -0.7167016110 0.0015433710 -0.0000022103 0.0015437665 -0.0000340682 0.4420400743 -0.8853619417
785312500 0.6648371112 -0.7160399782 0.0015064198 0.0000219815 0.0015149766 -0.0000539258 0.4439813005 -0.8847134865
785625000 0.6667136160 -0.7144148689 0.0014587912 -0.0000117537 0.0014547072 -0.001067178 0.4434095756 -0.8851353991
785937500 0.6637846215 -0.7154933746 0.0014253961 0.0000313287 0.0014121223 -0.0000426135 0.4418303496 -0.8847652229
786250000 0.6625504563 -0.7167949640 0.0013899808 -0.0000065577 0.0014216137 -0.0000478124 0.4419058259 -0.8856839220
786562500 0.6644410462 -0.7148213470 0.0013667386 -0.0000550701 0.0013863195 -0.0001219361 0.4425328349 -0.8861019331
786875000 0.6631283484 -0.7159907874 0.0013044710 -0.0000755093 0.0013067571 -0.0000991706 0.4421473396 -0.8860620885
787187500 0.6626773866 -0.7162175887 0.0012617776 -0.0000663571 0.0012604311 -0.0001223265 0.4409900454 -0.8871005133
787500000 0.6632833365 -0.7159492289 0.0012070817 -0.0000177532 0.0012175796 -0.0000795800 0.4414920199 -0.8869141549
787812500 0.6626256320 -0.7162840540 0.0011959293 0.0000456537 0.0012100251 -0.0000087015 0.4396158200 -0.8882957309
788125000 0.6626311115 -0.7174743839 0.0012190578 0.0000419966 0.0012256297 -0.0000366872 0.4387689652 -0.8901225537
788437500 0.6626976728 -0.7173162884 0.0011974592 0.0000613663 0.0011976429 -0.0000125058 0.4392008244 -0.8885166284
788750000 0.6610272477 -0.7169845640 0.0011817264 0.0000324258 0.0011964328 -0.0000060730 0.4388679031 -0.8884470685
789062500 0.6618347493 -0.7173715337 0.0011290737 0.0000430022 0.0011240961 -0.0000114414 0.4374526291 -0.8893972830
789375000 0.6608228708 -0.7185094743 0.0011488938 0.0000505704 0.0011494984 0.0000109614 0.4373416222 -0.8896790488
789687500 0.6604321719 -0.7186737698 0.0011392893 0.0000560928 0.0011204927 -0.0000246021 0.4364735457 -0.8906739839
790000000 0.6585996912 -0.7189445030 0.0011188172 0.0000654368 0.0011207778 0.0000365788 0.4347674213 -0.8901296177
790312500 0.6586561492 -0.7184687838 0.0011534063 0.0000886301 0.0011352779 0.0000053492 0.4342468528 -0.8903115855
790625000 0.6582490208 -0.7174802555 0.0011711728 0.0001525205 0.0011868550 0.0000850002 0.4343760606 -0.8913415353
790937500 0.6587670244 -0.7172926460 0.0011407530 0.0001097343 0.0011427531 0.0000563983 0.4341141045 -0.8916895728
791250000 0.6599170763 -0.7167211211 0.0011721680 0.0001105859 0.0011710368 0.0000531379 0.4332471465 -0.8918840516
791562500 0.6592619787 -0.7170580801 0.0011475246 0.0000839085 0.0011268178 0.0000309897 0.4336669995 -0.8922242730
791875000 0.6601122257 -0.7178329311 0.0011718150 0.0000867226 0.0011368120 0.0000088120 0.4322998719 -0.8936523554
792187500 0.6589907070 -0.7192065435 0.0011309507 0.0000934768 0.0011488782 0.0000308340 0.4314042469 -0.8928301767
792500000 0.6596878520 -0.7198892185 0.0011188951 0.0000870986 0.0010984696 0.0000331927 0.4299628229 -0.8934613710
792812500 0.6598719035 -0.7197249764 0.0011120492 0.0001515315 0.0011111832 0.0000601184 0.4306286309 -0.8924400891
793125000 0.6585287759 -0.7208744068 0.0011487037 0.0000515189 0.0011343456 -0.0000006703 0.4291039375 -0.8940794001
793437500 0.6583086024 -0.7213188035 0.0010978327 0.0000762731 0.0010560793 0.0000124679 0.4285744311 -0.8939886096
793750000 0.6594234589 -0.7222869464 0.0010966797 0.0000953530 0.0010670797 0.0000334815 0.4293070394 -0.8947523973
794062500 0.6582965303 -0.7223243912 0.0011106889 0.0001138664 0.0010802018 0.0000278020 0.4267174544 -0.8949254350
794375000 0.6581778707 -0.7230721160 0.0010935903 0.0001034965 0.0010694324 0.0000491427 0.4266979356 -0.8951519257
794687500 0.6576285988 -0.7244921983 0.0010978073 0.0000712652 0.0010494367 0.0000037608 0.4258927763 -0.8957797187
795000000 0.6558657092 -0.7244592362 0.0010603039 0.0001367978 0.0010350446 0.0000640968 0.4241609023 -0.8958143048
795312500 0.6571981254 -0.7250358729 0.0010513764 0.0001512593 0.0010322867 0.0000876409 0.4244982981 -0.8964503771
795625000 0.6549457749 -0.7273669365 0.0010713397 0.0001867949 0.0010393518 0.0001368882 0.4233900322 -0.8958128339
795937500 0.6546001247 -0.7257944131 0.0010591472 0.0001588687 0.0010496689 0.0000921527 0.4230179904 -0.8958667259
796250000 0.6551447491 -0.7270564952 0.0011217167 0.0002125122 0.0010690091 0.0001698527 0.4232398946 -0.8972154768
796562500 0.6532363424 -0.7284382213 0.0011747313 0.0001754016 0.0011385705 0.0001163950 0.4219188905 -0.8972350560
796875000 0.6540220600 -0.7277641483 0.0011717655 0.0001924689 0.0011433759 0.0001137724 0.4216320460 -0.8980360260
797187500 0.6529440236 -0.7285968802 0.0012012879 0.0001621756 0.0011628088 0.0000926498 0.4210806029 -0.8983927512
797500000 0.6526034983 -0.7296613457 0.0012124326 0.0001678802 0.0011613802 0.0001195536 0.4205342426 -0.8986857346
797812500 0.6508242028 -0.7304486209 0.0012588458 0.0001512736 0.0012345923 0.0001131269 0.4194921907 -0.8987108662
798125000 0.6517474882 -0.7295633545 0.0012880515 0.0001502487 0.0012695333 0.0000895864 0.4180545528 -0.8989414283
798437500 0.6511863660 -0.7303408683 0.0013545756 0.0001180692 0.0013069259 0.0000463522 0.4170997406 -0.8995779545
798750000 0.6499305759 -0.7324784384 0.0013968394 0.0000266566 0.0013986106 -0.0000281831 0.4160022265 -0.8998973004
799062500 0.6491444655 -0.7301897248 0.0014137070 -0.0001211654 0.0014009283 -0.0001710907 0.4165846413 -0.8981122156
799375000 0.6486466060 -0.7306946857 0.0013777646 -0.0001893226 0.0013504691 -0.0002515322 0.4157971896 -0.8992071099
799687500 0.6462384533 -0.7320548835 0.0013142198 -0.0001538274 0.0013141390 -0.0002298186 0.4150243375 -0.8990543052
800000000 0.6465655883 -0.7312732820 0.0013249427 -0.0002567304 0.0013103458 -0.0003354544 0.4130750424 -0.8988498300
800312500 0.6473595333 -0.7314654120 0.0013376447 -0.0003076276 0.0013033601 -0.0003837467 0.4141400716 -0.8984656509
800625000 0.6457483767 -0.7323103189 0.0013595330 -0.0003985607 0.0013116571 -0.0004777830 0.4114944934 -0.8995553544
800937500 0.6447887629 -0.7333975583 0.0012295214 -0.0005245701 0.0012102843 -0.0005572983 0.4110789108 -0.8993510845
801250000 0.6448555246 -0.7324882103 0.0011464837 -0.0005104497 0.0011301402 -0.0005732344 0.4114908501 -0.8987770214
801562500 0.6428457249 -0.7340541039 0.0011319050 -0.0005737359 0.0010817551 -0.0006361359 0.4091921958 -0.8999322732
801875000 0.6435153401 -0.7340925239 0.0010269949 -0.0006140158 0.0010062975 -0.0006678057 0.4097308145 -0.9006724188
802187500 0.6430641434 -0.7347850684 0.0009713068 -0.0005797406 0.0009277888 -0.0006485835 0.4108531990 -0.9004450079
802500000 0.6412952942 -0.7346963052 0.0008498844 -0.0006715780 0.0008104625 -0.0007210692 0.4097922899 -0.9003192817
802812500 0.6416487827 -0.7341658829 0.0008408194 -0.0006534600 0.0008118176 -0.0007190487 0.4085460626 -0.9011141712
803125000 0.6394141321 -0.7344363255 0.0007262807 -0.0006780411 0.0006670941 -0.0007490284 0.4077055628 -0.9010369154
803437500 0.6395508969 -0.7341037304 0.0006585854 -0.0007148051 0.0006066718 -0.0007556114 0.4081515858 -0.9010229888
803750000 0.6409331466 -0.7340174793 0.0005286771 -0.0006006290 0.0004981344 -0.0006584321 0.4083788518 -0.9017859341
804062500 0.6400547512 -0.7353283411 0.0005216769 -0.0005656222 0.0005146173 -0.0005943002 0.4067861222 -0.9023734975
804375000 0.6392511640 -0.7357140260 0.0005216714 -0.0006270729 0.0004732418 -0.0006629406 0.4067235723 -0.9030736930
804687500 0.6407424682 -0.7357586968 0.0004127147 -0.0006984522 0.0003664732 -0.0007414021 0.4065201876 -0.9031168798
805000000 0.6393357306 -0.7363748692 0.0001663998 -0.0005824197 0.0001410793 -0.0006260090 0.4063951043 -0.9031957933
805312500 0.6383328218 -0.7370861717 0.0001281820 -0.0003964197 0.0001112002 -0.0004170839 0.4050797077 -0.9046456944
805625000 0.6378193027 -0.7374384424 0.0001924857 -0.0002961854 0.0001451644 -0.0003565638 0.4040629699 -0.9048031551
805937500 0.6361585071 -0.7378694716 0.0001607671 -0.0002247032 0.0001292727 -0.0002540565 0.4025248441 -0.9046352531
806250000 0.6350084088 -0.7386660405 0.0002228179 -0.0001762223 0.0001788094 -0.0002052051 0.4021304085 -0.9060965105
806562500 0.6353478099 -0.7386572892 0.0002501744 -0.0001496726 0.0002010647 -0.0002120607 0.4018621759 -0.9069127565
806875000 0.6330080388 -0.7375963489 0.0002463322 -0.0001050101 0.0002038913 -0.0001494758 0.4020891399 -0.9070304039
807187500 0.6329144954 -0.7371766710 0.0002867986 -0.0000852699 0.0002439426 -0.0001312931 0.3992940520 -0.9075082951
807500000 0.6340588508 -0.7367518934 0.0002500037 -0.0000555166 0.0002270894 -0.0000831304 0.3978896299 -0.9075786117
807812500 0.6355131177 -0.7355744292 0.0003206457 0.0000140910 0.0002845262 -0.0000177390 0.3979578911 -0.9068342115
808125000 0.6330353940 -0.7386908097 0.0003801455 0.0000217482 0.0003539105 -0.0000210406 0.3959785833 -0.9086973247
808437500 0.6334832236 -0.7384685350 0.0004328831 0.0000211523 0.0003783036 -0.0000141687 0.3950231835 -0.9093465233
808750000 0.6337499946 -0.7390014313 0.0004576048 0.0000328196 0.0004566329 0.0000079186 0.3959321644 -0.9098197300
809062500 0.6328835648 -0.7401657136 0.0005454163 -0.0000051211 0.0005141019 -0.0000297609 0.3933667347 -0.9098372770
809375000 0.6320461209 -0.7410433104 0.0006356792 -0.0000486822 0.0005996649 -0.0000752077 0.3925186690 -0.9106212230
809687500 0.6315326925 -0.7410620224 0.0006710186 -0.0001324678 0.0006585894 -0.0001862583 0.3925581310 -0.9105660152
810000000 0.6286883566 -0.7409862422 0.0007335498 -0.0001635746 0.0006966538 -0.0002531849 0.3893110863 -0.9106466915
810312500 0.6298803060 -0.7404522103 0.0006885213 -0.0002960924 0.0006423865 -0.0003538564 0.3889731317 -0.9113386076
810625000 0.6295449549 -0.7405472273 0.0005979695 -0.0003187880 0.0005637842 -0.0003530188 0.3888333445 -0.9104642660
810937500 0.6279417223 -0.7424174436 0.0006587526 -0.0002973147 0.0006268719 -0.0003579951 0.3863445213 -0.9118268235
811250000 0.6278027984 -0.7416530217 0.0006689420 -0.0004394436 0.0006744027 -0.0004882234 0.3839730652 -0.9113002613
811562500 0.6280277577 -0.7408599914 0.0006242379 -0.0005869984 0.0006019325 -0.0006386039 0.3838916933 -0.9103675033
811875000 0.6277718561 -0.7408160765 0.0004451643 -0.0006827974 0.0003833380 -0.0007089058 0.3841915946 -0.9093181652
812187500 0.6285414191 -0.7420788690 0.0003498592 -0.0006634577 0.0002950488 -0.0007092789 0.3830798291 -0.9103503195
812500000 0.6271054097 -0.7427291507 0.0003428393 -0.0005955153 0.0003013168 -0.0006717903 0.3808958466 -0.9107015528
812812500 0.6283330877 -0.7424842973 0.0003377897 -0.0006473607 0.0002850319 -0.0006946893 0.3800472653 -0.9111282262
813125000 0.6277332868 -0.7425888168 0.0002558807 -0.0007670565 0.0002179140 -0.0008003174 0.3783547747 -0.9102255963
813437500 0.6270612149 -0.7444407463 0.0002035537 -0.0007596869 0.0001774997 -0.0008111266 0.3774072694 -0.9105618945
813750000 0.6258996500 -0.7447676481 0.0001377542 -0.0008025293 0.0000822033 -0.0008405468 0.3757956942 -0.9091060308
814062500 0.6271048285 -0.7456439986 0.0000631294 -0.0008859100 0.0000099000 -0.0009422790 0.3753810834 -0.9099093251
814375000 0.6270353255 -0.7449709480 -0.0000842695 -0.0009109177 -0.0001371047 -0.0009579722 0.3741114033 -0.9103246842
814687500 0.6242551644 -0.7474916645 -0.0002110095 -0.0008884658 -0.0002429593 -0.0009404657 0.3727207944 -0.9090051252
815000000 0.6254313877 -0.7475722785 -0.0003004892 -0.0008945980 -0.0003379074 -0.0009343459 0.3714677142 -0.9074267734
815312500 0.6252885229 -0.7484267747 -0.0004818730 -0.0009081037 -0.0005454824 -0.0009404037 0.3710846921 -0.9051118196
815625000 0.6237013824 -0.7491642324 -0.0005846092 -0.0008588926 -0.0006343856 -0.0009129816 0.3705770896 -0.9034151260
815937500 0.6234803269 -0.7507978772 -0.0007224220 -0.0008424536 -0.0007839999 -0.0009113134 0.3730937708 -0.9019128165
816250000 0.6236687775 -0.7511716487 -0.0009866250 -0.0007290762 -0.0010667645 -0.0007682774 0.3751680420 -0.9033922526
816562500 0.6220022334 -0.7508956273 -0.0010536264 -0.0004272562 -0.0011160996 -0.0004529532 0.3727347902 -0.9040382390
816875000 0.6226691564 -0.7519605607 -0.0009865216 -0.0002878272 -0.0010542921 -0.0003147058 0.3726539175 -0.9018725532
817187500 0.6219265485 -0.7523530739 -0.0010336733 -0.0001990242 -0.0010716726 -0.0002349862 0.3760621832 -0.9004057519
817500000 0.6211071090 -0.7544571508 -0.0010181257 -0.0000782819 -0.0010657847 -0.0001228386 0.3773817123 -0.9028382726
817812500 0.6197410157 -0.7559737807 -0.0010166133 0.0000499503 -0.0010797619 0.0000078857 0.3780531632 -0.9052779221
818125000 0.6190534357 -0.7553839350 -0.0009879980 0.0001136926 -0.0010457090 0.0000746960 0.3790214721 -0.9070293637
818437500 0.6176739801 -0.7560637112 -0.0009811808 0.0001677101 -0.0010185430 0.0001281177 0.3785592864 -0.9076832632
818750000 0.6169222799 -0.7565368691 -0.0009917830 0.0002281273 -0.0010342684 0.0001869540 0.3760411487 -0.9091404091
819062500 0.6153146884 -0.7582507857 -0.0010081419 0.0003639790 -0.0010822133 0.0003507150 0.3751250534 -0.9105681730
819375000 0.6153378547 -0.7576292081 -0.0009510447 0.0005428690 -0.0010061279 0.0005025832 0.3762284234 -0.9100867295
819687500 0.6128183906 -0.7598580939 -0.0008396110 0.0006255760 -0.0009249006 0.0006084353 0.3750793841 -0.9122455047
820000000 0.6118509953 -0.7594617366 -0.0007932480 0.0007147667 -0.0008177899 0.0007048703 0.3738469583 -0.9130630169
820312500 0.6111402123 -0.7605656028 -0.0006597570 0.0007592076 -0.0007206781 0.0007178110 0.3737110428 -0.9147880407
820625000 0.6104200690 -0.7595570937 -0.0005550917 0.0007964534 -0.0005906660 0.0007706228 0.3727983323 -0.9155926960
820937500 0.6103812485 -0.7598785447 -0.0004503547 0.0008108864 -0.0004957747 0.0008003279 0.3714103541 -0.9168880765
821250000 0.6081141833 -0.7601353159 -0.0003648906 0.0008495961 -0.0003881393 0.0008508316 0.3717020586 -0.9158061272
821562500 0.6074852270 -0.7606665545 -0.0000652773 0.0008356554 -0.0001244712 0.0007869796 0.3703009062 -0.9180030898
821875000 0.6062084434 -0.7603385689 -0.0000305595 0.0005925080 -0.0000930929 0.0005541788 0.3704081660 -0.9184024676
822187500 0.6058519444 -0.7617904153 -0.0000875366 0.0005364601 -0.0001599842 0.0004907541 0.3688242196 -0.9206465972
822500000 0.6036304115 -0.7616572862 -0.0001028677 0.0004940194 -0.0001151979 0.0004956610 0.3677450507 -0.9202404472
822812500 0.6026292367 -0.7608818816 -0.0000575174 0.0004637902 -0.0001038703 0.0004043587 0.3657030750 -0.9209591821
823125000 0.6004233491 -0.7615090031 -0.0000271985 0.0003737321 -0.0000799481 0.0003449466 0.3646473818 -0.9229916310
823437500 0.6011717550 -0.7598779882 -0.0000304438 0.0002943864 -0.0000784220 0.0002611670 0.3655314830 -0.9235356470
823750000 0.5988057606 -0.7591015345 -0.0000482967 0.0002123254 -0.0001174142 0.0001883005 0.3625460832 -0.9236329570
824062500 0.6000392745 -0.7581755177 -0.0001384701 0.0001844647 -0.0001862023 0.0001455305 0.3601257881 -0.9245882164
824375000 0.5996273149 -0.7593237425 -0.0001409399 0.0001029536 -0.0001797232 0.0000414920 0.3577820188 -0.9259414270
824687500 0.6008963593 -0.7586395728 -0.0002552214 0.0000398314 -0.0003247184 0.0000244155 0.3575848593 -0.9253841937
825000000 0.5996735684 -0.7603738878 -0.0003674122 0.0000485209 -0.0003983092 0.0000033332 0.3551099711 -0.9265427833
825312500 0.6013484405 -0.7607891374 -0.0004018216 0.0000504631 -0.0004820183 0.0000174199 0.3553005432 -0.9264949725
825625000 0.6014332683 -0.7608146258 -0.0005746857 0.0000556250 -0.0006242701 0.0000563032 0.3546236225 -0.9253561209
825937500 0.6013320631 -0.7621422048 -0.0006475450 0.0001866118 -0.0006962658 0.0001703490 0.3523473503 -0.9257448484
826250000 0.5974681667 -0.7656559439 -0.0005774560 0.0002766169 -0.0006372286 0.0002337617 0.3506051394 -0.9266411191
826562500 0.5969778494 -0.7653852177 -0.0006013811 0.0002935776 -0.0006710380 0.0002488087 0.3506392308 -0.9265932780
826875000 0.5963993882 -0.7649537492 -0.0005857276 0.0003297130 -0.0006042112 0.0003196319 0.3491543651 -0.9267999189
827187500 0.5957981613 -0.7658742596 -0.0005873222 0.0002701427 -0.0006577273 0.0002570877 0.3478414065 -0.9280253287
827500000 0.5940084526 -0.7654576117 -0.0007405839 0.0002780613 -0.0007948935 0.0002695881 0.3480638087 -0.9268913336
827812500 0.5941225065 -0.7646772096 -0.0008854199 0.0004427661 -0.0009010218 0.0004272443 0.3457819575 -0.9277292867
828125000 0.5933460275 -0.7657822546 -0.0007839311 0.0006038170 -0.0008191639 0.0006034998 0.3453537463 -0.9280294246
828437500 0.5912994929 -0.7652082152 -0.0007217926 0.0005990038 -0.0007457779 0.0006096838 0.3421483050 -0.9286549065
828750000 0.5938127678 -0.7652094546 -0.0006548066 0.0006906522 -0.0006845392 0.0006442673 0.3424468251 -0.9287476017
829062500 0.5922180209 -0.7671923167 -0.0005995880 0.0006148986 -0.0006481205 0.0005790185 0.3437004018 -0.9291275759
829375000 0.5914038508 -0.7661349031 -0.0008045313 0.0006122225 -0.0008819001 0.0006472580 0.3410857578 -0.9297044644
829687500 0.5902109098 -0.7660544952 -0.0009165620 0.0009735496 -0.0009461887 0.0009606190 0.3396590519 -0.9282646485
830000000 0.5926566142 -0.7690577239 -0.0005895979 0.0012426322 -0.0006407911 0.0012344902 0.3401458284 -0.9297834192
830312500 0.5908085050 -0.7681834256 -0.0002955245 0.0012603512 -0.0003431136 0.0012163032 0.3397585865 -0.9287909459
830625000 0.5891582922 -0.7691370712 -0.0000946475 0.0011396225 -0.0001252700 0.0011156746 0.3386025886 -0.9298956878
830937500 0.5884629871 -0.7701878897 0.0000343659 0.0009073921 -0.0000093442 0.0008918177 0.3378070256 -0.9317704145
831250000 0.5860683310 -0.7691824847 -0.0000938452 0.0009049046 -0.0001844531 0.0009083644 0.3360856567 -0.9315709821
831562500 0.5857427557 -0.7695019843 0.0000545070 0.0010998435 0.0000366699 0.0010942724 0.3337802931 -0.9325197176
831875000 0.5847525957 -0.7700287602 0.0002883664 0.0008704582 0.0002667732 0.0008572456 0.3328675062 -0.9336855675
832187500 0.5852802056 -0.7691455961 0.0003817080 0.0007402184 0.0003472462 0.0007366562 0.3322372282 -0.9342295624
832500000 0.5862032723 -0.7693362453 0.0004893445 0.0004766415 0.0004375529 0.0004262051 0.3309166344 -0.9341466437
832812500 0.5861643000 -0.7702123647 0.0003155684 0.0002945738 0.0002673501 0.0002659878 0.3303625117 -0.9346497408
833125000 0.5859371536 -0.7715836481 0.0002109174 0.0001843608 0.0001758080 0.0001741255 0.3296479912 -0.9356155866
833437500 0.5861273862 -0.7716174601 0.0000734072 0.0002319137 0.0000300654 0.0002115755 0.3277606782 -0.9363959632
833750000 0.5847599524 -0.7727232195 0.0000635801 0.0002387384 0.0000101576 0.0002062183 0.3266917371 -0.9373661212
834062500 0.5846394788 -0.7735439936 0.0000196025 0.0002255277 0.0000199773 0.0001972891 0.3256063761 -0.9383586094
834375000 0.5849174425 -0.7756160836 0.0000655962 0.0001888643 0.0000264410 0.0001731801 0.3240177993 -0.9383403571
834687500 0.5828478006 -0.7765446442 0.0000433075 0.0000595144 -0.0000413126 0.0000467247 0.3220284877 -0.9391830807
835000000 0.5824617939 -0.7763883575 -0.0000663770 0.0000611938 -0.0000942494 0.0000476649 0.3216441572 -0.9399361096
835312500 0.5828925027 -0.7776171558 -0.0001341917 0.0000291458 -0.0001744821 -0.0000071040 0.3190883881 -0.9399241432
835625000 0.5824150762 -0.7796257353 -0.0001982176 0.0000004776 -0.0002769185 -0.0000197530 0.3174472513 -0.9407650012
835937500 0.5799884700 -0.7808262635 -0.0002415201 0.0000499931 -0.0003119055 0.0000257302 0.3152068028 -0.9411632136
836250000 0.5786591777 -0.7817298379 -0.0003234111 0.0000158344 -0.0003438287 -0.0000023175 0.3127876090 -0.9412160266
836562500 0.5786375852 -0.7829961687 -0.0003527361 0.0000748494 -0.0004078321 0.0001052145 0.3141394403 -0.9414830050
836875000 0.5784876896 -0.7827876306 -0.0004187059 0.0001661484 -0.0004874342 0.0001758188 0.3123927911 -0.9414734571
837187500 0.5768273038 -0.7844687598 -0.0004029694 0.0002609268 -0.0004592528 0.0002550696 0.3100583373 -0.9421713671
837500000 0.5761056658 -0.7851611173 -0.0004008678 0.0003505005 -0.0004628164 0.0003542089 0.3077736302 -0.9421093917
837812500 0.5728773487 -0.7877155026 -0.0003177727 0.0004483307 -0.0003559482 0.0004318680 0.3061305913 -0.9433029414
838125000 0.5720249971 -0.7873964500 -0.0001984269 0.0004536604 -0.0002230214 0.0004333671 0.3047894974 -0.9428972134
838437500 0.5711787754 -0.7886927280 -0.0001279194 0.0004160182 -0.0001619288 0.0004168207 0.3034291905 -0.9449159687
838750000 0.5685025892 -0.7890004314 -0.0000469125 0.0004108766 -0.0000784518 0.0004079131 0.3019675766 -0.9444284822
839062500 0.5687191491 -0.7886439217 0.0000827184 0.0003625582 0.0000488880 0.0003281344 0.3003314212 -0.9444065643
839375000 0.5684760057 -0.7897360641 0.0001421170 0.0002319494 0.0000957208 0.0002108138 0.3002582929 -0.9455381340
839687500 0.5669740271 -0.7903193491 0.0001887491 0.0001260461 0.0001336591 0.0001021227 0.2970840212 -0.9463182435
840000000 0.5665623198 -0.7926120509 0.0001755963 0.0000389693 0.0001423903 0.0000109099 0.2943062004 -0.9476480037
840312500 0.5635169833 -0.7917538641 0.0001456896 -0.0000355259 0.0001189994 -0.0000311902 0.2935119051 -0.9458908479
840625000 0.5619064892 -0.7936434937 0.0001395551 -0.0000350524 0.0000922364 -0.0000609641 0.2911100792 -0.9469098916
840937500 0.5605885475 -0.7949900182 0.0002124366 -0.0000821883 0.0001938157 -0.0001208420 0.2872083457 -0.9488493348
841250000 0.5592444119 -0.7947758822 0.0003386248 -0.0002675750 0.0003047859 -0.0002918092 0.2870349743 -0.9475711782
841562500 0.5569697691 -0.7943866723 0.0002980442 -0.0004601247 0.0002475685 -0.0005116542 0.2861413925 -0.9472779409
841875000 0.5551532501 -0.7967524965 0.0002580927 -0.0005984894 0.0001761144 -0.0006343498 0.2820948619 -0.9494853612
842187500 0.5543963174 -0.7960993422 0.0001295737 -0.0007590788 0.0000623346 -0.0007663429 0.2805903332 -0.9485818747
842500000 0.5526757005 -0.7954963763 -0.000053674 -0.0008298334 -0.0000967047 -0.0008673857 0.2785307532 -0.9481867989
842812500 0.5499023687 -0.7960135210 -0.0000431480 -0.0009073998 -0.0000666809 -0.0009253233 0.2743813002 -0.9482205873
843125000 0.5499988475 -0.7960145223 -0.0000531758 -0.0010267078 -0.001234912 -0.0010680469 0.2712212323 -0.9485370762
843437500 0.5478670775 -0.7968688607 -0.0003121612 -0.0012073435 -0.0003640292 -0.0012423836 0.2694874856 -0.9472094930
843750000 0.5468546397 -0.7966889310 -0.0005034742 -0.0012069916 -0.0005560824 -0.0012308350 0.2680642354 -0.9458802739
844062500 0.5463603523 -0.7952212527 -0.0006130779 -0.0011860423 -0.0006958442 -0.0012096459 0.2663257401 -0.9452753547
844375000 0.5427218267 -0.7947414722 -0.0007206017 -0.0013018930 -0.0007777374 -0.0013085147 0.2627233269 -0.9428931214
844687500 0.5430432263 -0.7958130889 -0.0010476432 -0.0012525896 -0.0011339264 -0.0012651316 0.2616045000 -0.9427369296
845000000 0.5435653181 -0.7944055197 -0.0012332778 -0.0010214926 -0.0013113239 -0.0010224005 0.2617286333 -0.9422205170
845312500 0.5456038477 -0.7948545603 -0.0011606908 -0.0007611570 -0.0012233623 -0.0007604393 0.2595820754 -0.9434663032
845625000 0.5440729255 -0.7974387475 -0.0010104999 -0.0007815488 -0.0010760018 -0.0008180453 0.2540054517 -0.9423208459
845937500 0.5446337868 -0.7975906450 -0.0010330766 -0.0010317821 -0.0011398391 -0.0010523116 0.2527942604 -0.9362415319
846250000 0.5428706649 -0.8003899786 -0.0013946278 -0.0009669180 -0.0014547946 -0.0009689622 0.2555737598 -0.9336768309
846562500 0.5406227772 -0.8020723003 -0.0014615349 -0.0007580934 -0.0014928645 -0.0007621490 0.2554891398 -0.9374235091
846875000 0.5382774539 -0.8036579377 -0.0014315951 -0.0006970655 -0.0015102205 -0.0006481531 0.2515188200 -0.9375148737
847187500 0.5348838971 -0.8036415345 -0.0015034143 -0.0005098301 -0.0015659847 -0.0004956871 0.2490047063 -0.9348109974
847500000 0.5336136128 -0.8041255695 -0.0012971332 -0.0003543873 -0.0013316228 -0.0003831867 0.2495433660 -0.9320375515
847812500 0.5309221314 -0.8030227521 -0.0012786762 -0.0004723696 -0.0013774920 -0.0005053954 0.2515698849 -0.9295004988
848125000 0.5296613040 -0.8014093759 -0.0012662101 -0.0003866853 -0.0013525911 -0.0003740477 0.2547158561 -0.9306381958
848437500 0.5303352308 -0.7996946194 -0.0011809186 -0.0003183131 -0.0012501201 -0.0003247745 0.2546852935 -0.9319430776
848750000 0.5297383065 -0.7993992955 -0.0010283337 -0.0004621715 -0.0010971620 -0.0004456924 0.2535790488 -0.9315994240
849062500 0.5318474231 -0.7999680588 -0.0010532474 -0.0005067220 -0.0010760343 -0.0005219078 0.2568262258 -0.9327816784
849375000 0.5291381505 -0.8023922596 -0.0009944078 -0.0005677904 -0.0010358797 -0.0005837052 0.2521413940 -0.9376935112
849687500 0.5302956915 -0.8024291980 -0.0009102168 -0.0006465628 -0.0009832958 -0.0006606857 0.2482096900 -0.9384458164
850000000 0.5299860463 -0.8025238056 -0.0008624076 -0.0009761141 -0.0009495898 -0.0010001647 0.2458086914 -0.9340647013
850312500 0.5310108686 -0.8059390422 -0.0011459829 -0.0010498981 -0.0012323550 -0.0010510358 0.2491427738 -0.9328588570
850625000 0.5313959121 -0.8072001534 -0.0011668918 -0.0009712876 -0.0012167401 -0.0010035062 0.2518818076 -0.9366488153
850937500 0.5263975176 -0.8092715358 -0.0010877701 -0.0010741136 -0.0011376909 -0.0011282243 0.2480427162 -0.9386541532
851250000 0.5235461810 -0.8090461130 -0.0010571623 -0.0013859975 -0.0011075256 -0.0014338379 0.2425161166 -0.9365038795
851562500 0.5250142892 -0.8089652790 -0.0014471145 -0.0018734313 -0.0015454991 -0.0018862023 0.2479964190 -0.9320512581
851875000 0.5233500649 -0.8115761413 -0.0019810619 -0.0016651602 -0.0020791381 -0.0016631629 0.2509516534 -0.9368577269
852187500 0.5210470295 -0.8123860406 -0.0020831111 -0.0013956610 -0.0021185122 -0.0013869098 0.2517273819 -0.9420778221
852500000 0.5219624073 -0.8131398903 -0.0020622894 -0.0014650174 -0.0021233314 -0.0014980060 0.2488569330 -0.9461896720
852812500 0.5194207935 -0.8146159996 -0.0022754673 -0.0016093006 -0.0023956823 -0.0016095620 0.2466317378 -0.9484646938
853125000 0.5191947897 -0.8147882197 -0.0026713220 -0.0014653282 -0.0027349457 -0.0014563366 0.2484503088 -0.9503894641
853437500 0.5181507658 -0.8165497223 -0.0028983671 -0.0012590165 -0.0029872063 -0.0012479949 0.2430118958 -0.9543377487
853750000 0.5170946040 -0.8179960520 -0.0030191531 -0.0010436612 -0.0030885179 -0.0010212191 0.2414034011 -0.9575642946
854062500 0.5158237324 -0.8201004938 -0.0031175804 -0.0007898608 -0.0031907935 -0.0007558641 0.2362059375 -0.9609991727
854375000 0.5139598840 -0.8204837418 -0.0031596946 -0.0006303425 -0.0032591281 -0.0006206446 0.2327425085 -0.9625872783
854687500 0.5122604054 -0.8228976379 -0.0032347451 -0.0003777221 -0.0033089112 -0.0003222447 0.2284833882 -0.9657876765
855000000 0.5089448434 -0.8228746203 -0.0031665935 -0.0001177780 -0.0032382406 -0.0001019073 0.2244338875 -0.9655308975
855312500 0.5078969618 -0.8230583412 -0.0031149416 -0.0000118455 -0.0031993170 0.0000367048 0.2174943502 -0.9665441058
855625000 0.5057783225 -0.8241323381 -0.0031018102 0.0002766282 -0.0031697697 0.0002956954 0.2124021030 -0.9667280010
855937500 0.5035717692 -0.8259147247 -0.0029680291 0.0004387396 -0.0030202632 0.0004585587 0.2070799258 -0.9664786512
856250000 0.5029397189 -0.8273128233 -0.0028607453 0.0005568933 -0.0029241527 0.0005787678 0.2026541967 -0.9677451605
856562500 0.5020501722 -0.8293314773 -0.0028118964 0.0007677303 -0.0028620174 0.0007935383 0.1965368057 -0.9680931327
856875000 0.5001478964 -0.8296032946 -0.0026579061 0.0010022719 -0.0026878549 0.0010209382 0.1908781116 -0.9636531997
857187500 0.4954950006 -0.8311619432 -0.0023377712 0.0011804565 -0.0023887589 0.0011870367 0.1877813381 -0.9597447934
857500000 0.4951336291 -0.8320193285 -0.0020015995 0.0011899820 -0.0020191727 0.0012010960 0.1851584526 -0.9593354791
857812500 0.4938589120 -0.8326314146 -0.0018216317 0.0011211127 -0.0018417411 0.0011152599 0.1789118208 -0.9581905691
858125000 0.4909088206 -0.8335531343 -0.0015773044 0.0012421416 -0.0016118975 0.0012664258 0.1722311075 -0.9513348367
858437500 0.4902335160 -0.8344339046 -0.0010372787 0.0012496965 -0.0010700479 0.0012296548 0.1745540050 -0.9431826477
858750000 0.4891108162 -0.8355595621 -0.0007534150 0.0008126079 -0.0007941690 0.0008017735 0.1750964510 -0.9393721976
859062500 0.4870965678 -0.8389401402 -0.0006385021 0.0005807621 -0.0006757656 0.0005556757 0.1795483901 -0.9375832166
859375000 0.4832925039 -0.8391489977 -0.0005194692 0.0002806588 -0.0005549579 0.0002637502 0.1830772874 -0.9399609596
859687500 0.4817617384 -0.8407586688 -0.0004785668 0.0000403702 -0.0005052853 0.0000219855 0.1818834581 -0.9437115348
860000000 0.4787566144 -0.8436048720 -0.0004001230 -0.0002317879 -0.0004678719 -0.0002394313 0.1779784165 -0.9443297827
860312500 0.4754304701 -0.8441064623 -0.0004147885 -0.0004987226 -0.0004546883 -0.0005322038 0.1739403274 -0.9460925489
860625000 0.4732325991 -0.8438914351 -0.0004479802 -0.0007374442 -0.0004857640 -0.0007765834 0.1716260971 -0.9441322638
860937500 0.4697428449 -0.8450837186 -0.0004127090 -0.0010106550 -0.0005038456 -0.0010329836 0.1666005864 -0.9424448139
861250000 0.4687157279 -0.8468757573 -0.0005703298 -0.0011941354 -0.0006479901 -0.0012021310 0.1664182440 -0.9412829848
861562500 0.4650251558 -0.8480528232 -0.0004665055 -0.0013591760 -0.0005304766 -0.0014044377 0.1620488648 -0.9422280075
861875000 0.4611651541 -0.8488402526 -0.0004496407 -0.0018536213 -0.0005380461 -0.0018887337 0.1572829334 -0.9353954641
862187500 0.4600626014 -0.8481606880 -0.0006820599 -0.0023834473 -0.0008152541 -0.0024084622 0.1586390601 -0.9290484890
862500000 0.4550235794 -0.8506654403 -0.0011120241 -0.0026757936 -0.0012088794 -0.0027187444 0.1621939058 -0.9275041557
862812500 0.4532534515 -0.8498688895 -0.0017475546 -0.0027912025 -0.0018440653 -0.0027490799 0.1695111883 -0.9287283442
863125000 0.4496397086 -0.8509884091 -0.0019101056 -0.0025631027 -0.0020182956 -0.0025578302 0.1684777591 -0.9346906663
863437500 0.4482578402 -0.8510501730 -0.0017372372 -0.0025537518 -0.0018399061 -0.0025848409 0.1628906584 -0.9363726384
863750000 0.4424792604 -0.8522704861 -0.0018523146 -0.0032006480 -0.0019987441 -0.0032500934 0.1597799983 -0.9302881834
864062500 0.4380076380 -0.8572956325 -0.0026331527 -0.0035281442 -0.0027443443 -0.0035058035 0.1638182396 -0.9311144041
864375000 0.4365001028 -0.8513654422 -0.0031119400 -0.0035506286 -0.0032405137 -0.0035436633 0.1669925322 -0.9267665541
864687500 0.4344435987 -0.8517742140 -0.0039338339 -0.0034824308 -0.0040996583 -0.0034515917 0.1772097734 -0.9306714908
865000000 0.4299508097 -0.8491047245 -0.0045090661 -0.0028973013 -0.0046288895 -0.0028401827 0.1783950996 -0.9400746857
865312500 0.4296903829 -0.8483087022 -0.0046882899 -0.0023348694 -0.0047889513 -0.0023150410 0.1746931299 -0.9467038982
865625000 0.4291368890 -0.8497859951 -0.0049100740 -0.0020657296 -0.0050260078 -0.0020065557 0.1731856240 -0.9523785295
865937500 0.4256576567 -0.8498119742 -0.0048821454 -0.0014862524 -0.0049770600 -0.0014401320 0.1684511519 -0.9571645717
866250000 0.4240540359 -0.8513156175 -0.0047932221 -0.0012429459 -0.0048459758 -0.0011756881 0.1640390764 -0.9626726403
866562500 0.4215253559 -0.8494998289 -0.0047238256 -0.0010426384 -0.0048208973 -0.0009900225 0.1596671901 -0.9641403947
866875000 0.4186870336 -0.8524602867 -0.0046691092 -0.0007714088 -0.0047647334 -0.0007291175 0.1555485055 -0.9689133052
867187500 0.4141307948 -0.8508650113 -0.0046179328 -0.0007257107 -0.0047232543 -0.0006636797 0.1499534109 -0.9702817239
867500000 0.4086742678 -0.8489670796 -0.0045926905 -0.0005008940 -0.0046564212 -0.0004346124 0.1440703152 -0.9718078267
867812500 0.4053372538 -0.8446237624 -0.0045783758 -0.0003593777 -0.0046047491 -0.0002726364 0.1390018378 -0.9731193633
868125000 0.4094261212 -0.8429688069 -0.0044050040 -0.0001440755 -0.0044880282 -0.0001026549 0.1370574069 -0.9753552923
868437500 0.4071983792 -0.8444003786 -0.0042738300 -0.0000270105 -0.0043394149 0.0000064882 0.1318068408 -0.9791393787
868750000 0.4063914719 -0.8398672525 -0.0041605754 0.0000154750 -0.0042060324 0.0000527055 0.1263541258 -0.9809510847
869062500 0.4118909942 -0.8360355344 -0.0040857405 0.0001579860 -0.0041235754 0.0001782559 0.1218798272 -0.9831709608
869375000 0.4175482401 -0.8436363175 -0.0038855323 0.0002026210 -0.0039587947 0.0002326433 0.1144884763 -0.9835520097
869687500 0.4169952770 -0.8509209742 -0.0037520760 0.0001958709 -0.0038368902 0.0002392653 0.1094083138 -0.9848048871
870000000 0.4136374053 -0.8555497251 -0.0036599593 0.0001495347 -0.0037315714 0.0001998330 0.1020801207 -0.9854912369
870312500 0.4114437928 -0.8596486395 -0.0036035778 0.0000901011 -0.0036631778 0.0001263065 0.0975244732 -0.9847712347
870625000 0.4076997340 -0.8651434928 -0.0035353176 0.0001199792 -0.0036256637 0.0001873568 0.0916177106 -0.9846855936
870937500 0.4026425162 -0.8683512576 -0.0035174986 0.0001102624 -0.0035518604 0.0001407822 0.0862502486 -0.9833210931
871250000 0.3975326145 -0.8711202068 -0.0035621841 0.0001808317 -0.0036227531 0.0002159469 0.0833833365 -0.9827905898
871562500 0.3912394217 -0.8727584675 -0.0034816225 0.0002907328 -0.0035256427 0.0003434707 0.0799483807 -0.9828242726
871875000 0.3861738871 -0.8739947577 -0.0032540538 0.0003429500 -0.0033536774 0.0003670430 0.0740701152 -0.9844925383
872187500 0.3794883727 -0.8741615296 -0.0031374774 0.0003136888 -0.0032018740 0.0003910281 0.0698077295 -0.9854001945
872500000 0.3745659497 -0.8734747950 -0.0030597569 0.0003105437 -0.0031198253 0.0003504601 0.0640843184 -0.9853150699
872812500 0.3699669577 -0.8744317940 -0.0028676448 0.0002615102 -0.0029088710 0.0003168575 0.0564632470 -0.9876936388
873125000 0.3657643339 -0.8718486346 -0.0027153680 0.0003140616 -0.0027693465 0.0003486201 0.0519014581 -0.9880245380
873437500 0.3654397795 -0.8692815917 -0.0023948462 0.0001608606 -0.0024285011 0.0001914175 0.0460667742 -0.9875580606
873750000 0.3633614491 -0.8705500445 -0.0022715706 -0.0001879899 -0.0023156550 -0.0001627116 0.0401525388 -0.9872140313
874062500 0.3579880023 -0.8696067277 -0.0023658261 -0.0003403911 -0.0024295846 -0.0003081991 0.0345279554 -0.9871114650
874375000 0.3597754367 -0.8673716470 -0.0023096650 -0.0004533316 -0.0023917332 -0.0004555125 0.0300011273 -0.9895165919
874687500 0.3628156580 -0.8722213992 -0.0022959509 -0.0005954129 -0.0023499623 -0.0005907529 0.0217840796 -0.9884367359
875000000 0.3598784127 -0.8778327526 -0.0021922785 -0.0007837737 -0.0023188788 -0.0007682528 0.0162718082 -0.9880265899
875312500 0.3566522352 -0.8799569127 -0.0023728332 -0.0009558784 -0.0024191836 -0.0008623357 0.0120033642 -0.9888253326
875625000 0.3552059921 -0.8856528766 -0.0023914314 -0.0008405638 -0.0024251007 -0.0007933773 0.0036459170 -0.9898416486
875937500 0.3490779318 -0.8904591928 -0.0020684234 -0.0009031651 -0.0021346924 -0.0009127554 -0.0043131929 -0.9885174421
876250000 0.3431936657 -0.8938540640 -0.0017943373 -0.0013121909 -0.0018560395 -0.0013324709 -0.0104874437 -0.9884685868
876562500 0.3372277234 -0.8963763158 -0.0017839254 -0.0020019938 -0.0019019275 -0.0020074777 -0.0190218879 -0.9864174628
876875000 0.3310139341 -0.8993097210 -0.0020706660 -0.0025232047 -0.0021952294 -0.0025094776 -0.0262315948 -0.9848532461
877187500 0.3250703427 -0.9018368130 -0.0027445459 -0.0030466115 -0.0028833518 -0.0030007240 -0.0321402528 -0.9832334173
877500000 0.3187394952 -0.9045989496 -0.0032289799 -0.0031550439 -0.0033702036 -0.0031419498 -0.0395387155 -0.9821910581
877812500 0.3132558554 -0.9061728122 -0.0044042505 -0.0034779841 -0.0046120910 -0.0033568408 -0.0420174741 -0.9796455894
878125000 0.3058295683 -0.9078832965 -0.0052395548 -0.0022412612 -0.0053119812 -0.0020862452 -0.0482622089 -0.9795671717
878437500 0.2986777879 -0.9107354043 -0.0051017792 -0.0015095972 -0.0051834746 -0.0014002144 -0.0552905026 -0.9806866376
878750000 0.2921253109 -0.9122132059 -0.0049232414 -0.0010287297 -0.0050006208 -0.0009104797 -0.0625164197 -0.9815652876
879062500 0.2836265373 -0.9139247006 -0.0046703106 -0.0005808002 -0.0047233146 -0.0004952831 -0.0732147350 -0.9811187250
879375000 0.2735599863 -0.9151306986 -0.0043335635 -0.0004845539 -0.0043917482 -0.0003969824 -0.0834636169 -0.9802571462
879687500 0.2643738391 -0.9140004609 -0.0042004434 -0.0004168261 -0.0042487150 -0.0003237895 -0.0902101048 -0.9795172289
880000000 0.2559800045 -0.9128074743 -0.0040454571 -0.0003872997 -0.0040855502 -0.0002781216 -0.0972713570 -0.9781060244
880312500 0.2478279733 -0.9081258900 -0.0039866061 -0.0003300801 -0.0040667049 -0.0002441757 -0.1060362055 -0.9764854178
880625000 0.2429917994 -0.9013770714 -0.0039752917 -0.0002577226 -0.0040296948 -0.0001509129 -0.1151126764 -0.9774035609
880937500 0.2413147663 -0.9005186452 -0.0039746908 -0.0000377790 -0.0040368611 0.0000921794 -0.1256724540 -0.9751070599
881250000 0.2383805499 -0.9043200855 -0.0038719302 0.0002367456 -0.0039098130 0.0003165848 -0.1366446441 -0.9741924645
881562500 0.2309462555 -0.9062762258 -0.0036450364 0.0004000476 -0.0036842326 0.0004960914 -0.1483317202 -0.9716395993
881875000 0.2251808172 -0.9067023058 -0.0035243259 0.0005780151 -0.0035636769 0.0006698044 -0.1563589928 -0.9695004255
882187500 0.2188871932 -0.9096601701 -0.0032806135 0.0007789262 -0.0033135528 0.0008940795 -0.1693583026 -0.9677734817
882500000 0.2103574638 -0.9098018857 -0.0030530835 0.0010030032 -0.0030705683 0.0011178464 -0.1795423418 -0.9649862377
882812500 0.1990067300 -0.9081882628 -0.0026315502 0.0011399548 -0.0026440960 0.0012250043 -0.1894904858 -0.9620082181
883125000 0.1942848935 -0.9035545818 -0.0021890102 0.0011642591 -0.0021791069 0.0012041988 -0.2022225326 -0.9604943267
883437500 0.1923654817 -0.9043380625 -0.0019316572 0.0009165256 -0.0019600055 0.0009412185 -0.2161361738 -0.9584687795
883750000 0.1876703569 -0.9076717994 -0.0018439705 0.0007589674 -0.0018815453 0.0008129193 -0.2302935418 -0.9538279391
884062500 0.1786336673 -0.9113200287 -0.0018357814 0.0007070593 -0.0018260938 0.0007799856 -0.2471328643 -0.9485883291
884375000 0.1711296336 -0.9156932382 -0.0018716428 0.0007166332 -0.0019295071 0.0008013444 -0.2621389414 -0.9413081754
884687500 0.1581987007 -0.9196125143 -0.0019173290 0.0007745467 -0.0019520561 0.0008432406 -0.2782607046 -0.9334772414
885000000 0.1432334969 -0.9198039841 -0.0020440258 0.0009179911 -0.0020943347 0.0009623437 -0.2927758966 -0.9247825811
885312500 0.1316997782 -0.9199791295 -0.0022415200 0.0010148373 -0.0022690497 0.0010738193 -0.3096797498 -0.9097871366
885625000 0.1155991763 -0.9178515191 -0.0026561827 0.0014709086 -0.0026808961 0.0015915824 -0.3133833393 -0.8930115499
885937500 0.1037689123 -0.9156685336 -0.0026797346 0.0022574343 -0.0026507236 0.0023688765 -0.3185465433 -0.8959383452
886250000 0.0886644700 -0.9127217743 -0.0026019236 0.0027752886 -0.0025919272 0.0028904813 -0.3345825065 -0.8973854536
886562500 0.0726500110 -0.9017668310 -0.0025628047 0.0032348016 -0.0025359877 0.0033601457 -0.3543354603 -0.8911651108
886875000 0.0669269501 -0.8917043971 -0.0027620847 0.0036896080 -0.0027172939 0.0037614794 -0.3769671849 -0.8852650882
887187500 0.0622869522 -0.8919587807 -0.0033022310 0.0041935644 -0.0033093484 0.0042864774 -0.4014063486 -0.8776086612
887500000 0.0494424551 -0.8894257712 -0.0043006224 0.0050545046 -0.0042829488 0.0052070882 -0.4278919190 -0.8656362201
887812500 0.0366718091 -0.8827801610 -0.0057229151 0.0066448527 -0.0056066222 0.0068921103 -0.4586720283 -0.8487602505
888125000 0.0294118401 -0.8695533811 -0.0068983272 0.0089679019 -0.0067106440 0.0092363533 -0.4868883726 -0.8290005332
888437500 0.0321539748 -0.8699289842 -0.0086128494 0.0116132695 -0.0083794475 0.0119666823 -0.5227100289 -0.8000368586
888750000 0.0209020254 -0.8822410736 -0.0105715991 0.0164906204 -0.0100752041 0.0169358079 -0.5547808323 -0.7608417365
889062500 -0.0032673906 -0.8840587206 -0.0114862295 0.0227540312 -0.0107414064 0.0231657177 -0.5798853165 -0.7198289661
889375000 -0.0265646128 -0.8762287221 -0.0113661334 0.0308822476 -0.0102551387 0.0311934597 -0.6094778438 -0.6648834468
889687500 -0.0458820206 -0.8646354537 -0.0085860688 0.0402507083 -0.0070958273 0.0401819741 -0.6295100806 -0.5865271110
890000000 -0.0645304626 -0.8500495772 -0.0035763232 0.0502720954 -0.0018220162 0.0497203525 -0.6169920766 -0.4832241819
890312500 -0.0803982092 -0.8285019028 0.0061449937 0.0579897405 0.0076178600 0.0563607309 -0.5222284428 -0.3865308783
890625000 -0.0875464915 -0.8072168844 0.0060982575 0.0623500517 0.0066351581 0.0617342776 -0.3910152399 -0.4498239894
890937500 -0.0847724007 -0.7880711511 0.0109284585 0.0848011866 0.0128908039 0.0842424012 -0.4589307731 -0.5217196226
891250000 -0.0741309765 -0.7824877272 0.0317734081 0.1053814020 0.0345930607 0.1030382283 -0.5319683370 -0.4632027352
891562500 -0.0824311372 -0.7910276431 0.0575994951 0.1275687429 0.0604161125 0.1240688978 -0.5273347301 -0.3402615960
891875000 -0.0888776397 -0.7840347325 0.1192188091 0.1408146933 0.1208943804 0.1335372375 -0.4068511728 -0.2516944942
892187500 -0.0939120488 -0.7957380441 0.1742423877 0.1007454358 0.1711771019 0.0942449636 -0.2731952658 -0.3002160430
892500000 -0.1230160243 -0.8092024929 0.1825586323 0.0464448351 0.1778024758 0.0425359525 -0.2586328816 -0.4264220855
892812500 -0.1665235759 -0.8017360822 0.1651357209 0.0286789095 0.1615328423 0.0267394348 -0.3487544878 -0.4603170340
893125000 -0.2040177672 -0.7786158074 0.1555583614 0.0364760505 0.1523447321 0.0352657121 -0.4253851887 -0.4070667670
893437500 -0.2348907398 -0.7410034737 0.1763654896 0.0659388781 0.1743874467 0.0638096127 -0.4200062842 -0.2886833544
893750000 -0.2551510304 -0.6956978421 0.2306244066 0.0795476937 0.2276554443 0.0771846565 -0.3356867990 -0.2187534138
894062500 -0.2510483416 -0.6429204876 0.3144300464 0.0689496957 0.3114062547 0.0664011525 -0.2154614441 -0.2110145497
894375000 -0.2193833542 -0.6090767902 0.4056529952 -0.0087963386 0.4021883496 -0.0119887775 -0.1324949598 -0.3051205007
894687500 -0.1911114787 -0.6173889335 0.4294341581 -0.1399682771 0.4233211489 -0.1426854907 -0.1695364404 -0.4016417746
895000000 -0.1963558365 -0.6338690576 0.3855124557 -0.2417062859 0.3768397713 -0.2422376547 -0.2495667255 -0.4010027564
895312500 -0.2140509165 -0.6478458412 0.3191024081 -0.2938657678 0.3105168056 -0.2893498282 -0.2621138144 -0.3320042145
895625000 -0.2586888431 -0.6572836002 0.2766564688 -0.3010961848 0.2720887144 -0.2936638169 -0.2029589967 -0.3066810585
895937500 -0.3176618597 -0.6359648416 0.2734264335 -0.3082423465 0.2736576097 -0.3016775229 -0.1543496668 -0.3626040911
896250000 -0.3707880972 -0.5841400803 0.2891064948 -0.3456375161 0.2904123721 -0.3432392388 -0.1978670095 -0.4294809025
896562500 -0.4054544117 -0.5132680153 0.2882532135 -0.4102880927 0.2901921133 -0.4093882332 -0.2705346768 -0.4295639184
896875000 -0.4184437321 -0.4370803100 0.2633398261 -0.4861433973 0.2640387056 -0.4875810224 -0.3241653479 -0.3894294848
897187500 -0.4142715006 -0.3573686619 0.2273296487 -0.5597075168 0.2262167015 -0.5627439912 -0.3561557993 -0.3325043219
897500000 -0.3935764555 -0.2749852397 0.1641586459 -0.6336206217 0.1610460533 -0.6365225507 -0.3698384391 -0.2605650827
897812500 -0.3507060017 -0.2025271056 0.0833532335 -0.6940045782 0.0773140590 -0.6962695544 -0.3538521401 -0.1827594765
898125000 -0.2954262349 -0.1415188260 -0.0157663882 -0.7361633636 -0.0223295913 -0.7363578692 -0.3082798741 -0.1129104130
898437500 -0.2315058459 -0.0881951958 -0.1212841925 -0.7582123433 -0.1285587714 -0.7571543196 -0.2440262210 -0.0642589453
898750000 -0.1545771091 -0.0493257213 -0.2329382728 -0.7547141708 -0.2405943876 -0.7523151934 -0.1702229636 -0.0372126418
899062500 -0.0701823270 -0.0330447296 -0.3357616358 -0.7306071373 -0.3444619391 -0.7259142617 -0.0962769976 -0.0343934882
899375000 0.0113310427 -0.0396181876 -0.4341395319 -0.6858297828 -0.4421233579 -0.6800673046 -0.0307800063 -0.0508788623
899687500 0.0803209371 -0.0634804571 -0.5156673275 -0.6239218069 -0.5221095262 -0.6168241852 0.0185676279 -0.0766620474
900000000 0.1463559784 -0.0871687310 -0.5766401847 -0.5452061152 -0.5814852337 -0.5355502717 0.0588491611 -0.0942134870
900312500 0.2103784307 -0.1516287180 -0.6003025769 -0.4867886979 -0.6020831197 -0.4791944277 0.1313608605 -0.1211943289
900625000 0.2271060907 -0.2097337861 -0.6456924010 -0.4408873244 -0.6490961738 -0.4324250161 0.1710283891 -0.1941660191
900937500 0.2373217641 -0.2585162391 -0.6865513979 -0.3778924907 -0.6873104315 -0.3701433690 0.1805697614 -0.2595949913
901250000 0.2411058331 -0.3021444090 -0.7137612162 -0.3097181221 -0.7150222169 -0.3006702405 0.1720543918 -0.3154771451
901562500 0.2360302272 -0.3437492616 -0.7268881951 -0.2460863093 -0.7265470016 -0.2384022399 0.1543363181 -0.3580515106
901875000 0.2220973193 -0.3778219408 -0.7363120520 -0.1886934101 -0.7355829789 -0.1806334272 0.1354494481 -0.3894129514
902187500 0.2059283537 -0.4050708115 -0.7443290268 -0.1360733645 -0.7436495028 -0.1267503659 0.1157876494 -0.4213036757
902500000 0.1887388071 -0.4271038533 -0.7466847584 -0.0814878257 -0.7458102146 -0.0747090455 0.0903273347 -0.4473531250
902812500 0.1685587423 -0.4465782858 -0.7474221617 -0.0308535287 -0.7450968375 -0.0226940227 0.0591836848 -0.4661898867
903125000 0.1464009942 -0.4626274693 -0.7421904362 0.0173525488 -0.7393476230 0.0256350899 0.0288920693 -0.4776967419
903437500 0.1203270919 -0.4741604477 -0.7344504489 0.0596063803 -0.7308420306 0.0684590448 -0.0006826026 -0.4836482142
903750000 0.0906810536 -0.4736189972 -0.7277595361 0.0967396800 -0.7248173835 0.1045265176 -0.0320719436 -0.4856544964
904062500 0.0753577046 -0.4729146396 -0.7319913543 0.1374337560 -0.7280216917 0.1450736599 -0.0590186454 -0.4817226504
904375000 0.0512908522 -0.4762600524 -0.7282955404 0.1823033642 -0.7233016208 0.1897324123 -0.0878866360 -0.4771025945
904687500 0.0259493225 -0.4704748476 -0.7206788617 0.2231005877 -0.7156798525 0.2309445520 -0.1165344587 -0.4651105235
905000000 0.0035657593 -0.4610566409 -0.7139878337 0.2655299302 -0.7074268680 0.2736027799 -0.1400791941 -0.4491446234
905312500 -0.0186495101 -0.4495089095 -0.7029444312 0.3105553728 -0.6959650767 0.3175873683 -0.1620515233 -0.4323052826
905625000 -0.0399215667 -0.4349883626 -0.6900854309 0.3544181303 -0.6820727953 0.3614805249 -0.1845021156 -0.4125747313
905937500 -0.0589434093 -0.4160295703 -0.6753246617 0.3986779046 -0.6672928480 0.4050719766 -0.2050603567 -0.3885304192
906250000 -0.0737822700 -0.3939955614 -0.6542979463 0.4431557663 -0.6454462349 0.4488321583 -0.2196747163 -0.3589325168
906562500 -0.0863980857 -0.3758066596 -0.6304427875 0.4795637981 -0.6216858785 0.4843803060 -0.2284254771 -0.3344096173
906875000 -0.1052747423 -0.3513177104 -0.6112270405 0.5190964094 -0.6022652127 0.5235434326 -0.2446308281 -0.3064946341
907187500 -0.1153082922 -0.3187053583 -0.5889509495 0.5588056813 -0.5798832278 0.5621533680 -0.2555489938 -0.2699159782
907500000 -0.1177360125 -0.2877847871 -0.5633158343 0.6009064594 -0.5540082263 0.6031261667 -0.2563165130 -0.2276046749
907812500 -0.1189238035 -0.2592221852 -0.5315067867 0.6430281821 -0.5155297273 0.6661915636 -0.2485779034 -0.1906801243
908125000 -0.1188090884 -0.2300170431 -0.4966979710 0.6815458917 -0.4791860242 0.7036005390 -0.2400036152 -0.1572001221
908437500 -0.1146424119 -0.1976428789 -0.4593484936 0.7184104443 -0.4397282693 0.7406374031 -0.2301787394 -0.1228211940
908750000 -0.1070806534 -0.1645843311 -0.4051525608 0.7754629845 -0.3953849862 0.7738245260 -0.2154610969 -0.0850191360
909062500 -0.0927088728 -0.1324749572 -0.3569717718 0.8081344790 -0.3474233832 0.8055978994 -0.1930458556 -0.0485361650
909375000 -0.0725739413 -0.1043581274 -0.3026598496 0.8366227138 -0.2931208084 0.8332939495 -0.1636675077 -0.0142338413
909687500 -0.0520538862 -0.0840358917 -0.2424408658 0.8524308941 -0.2331884727 0.8475738982 -0.1220266966 0.0135264215
910000000 -0.0374057769 -0.0573899818 -0.1958816889 0.8597265088 -0.1879571780 0.8560655823 -0.0866386517 0.0206359240
910312500 -0.0106127357 -0.0308874904 -0.1458903161 0.8749850925 -0.1406494953 0.8715029230 -0.0581917003 0.0339228577
910625000 0.0206023013 -0.0098569948 -0.0917789354 0.8864144937 -0.0844635200 0.8824271438 -0.0258784567 0.0488609014
910937500 0.0542467331 0.0061145506 -0.0366113363 0.8922335690 -0.0300437149 0.8888129422 0.0123748538 0.0569528843
911250000 0.0905057246 0.0159063512 0.0221792774 0.8931380433 0.0291182961 0.8887590000 0.0487800721 0.0591372012
911562500 0.1233933307 0.0192077765 0.0789205793 0.8849166085 0.0862581229 0.8801402830 0.0837672321 0.0547037574
911875000 0.1551297459 0.0252627063 0.1336080585 0.8706623428 0.1403936103 0.8650343558 0.1087847345 0.0499440343
912187500 0.1985052953 0.0234747409 0.1776104478 0.8508430689 0.1847861792 0.8444923233 0.1393266846 0.0589006448
912500000 0.2287905842 0.0060863628 0.2205190578 0.8410767750 0.2263615494 0.8347432018 0.1877205748 0.0493976987
912812500 0.2531425734 -0.0058594801 0.2708149142 0.8219850307 0.2749532866 0.8164059433 0.2218701322 0.0263401816
913125000 0.2779247460 -0.0190270273 0.3126695244 0.7992240943 0.3158350826 0.7938008867 0.2465250909 0.0046843613
913437500 0.3002940034 -0.0339317526 0.3517433656 0.7767865382 0.3557029877 0.7709147008 0.2704298947 -0.0160072523
913750000 0.3214607191 -0.0517906520 0.3888822975 0.7530843929 0.3929199253 0.7469106401 0.2903541241 -0.0397267580
914062500 0.3382961742 -0.0729975651 0.4261036824 0.7242400893 0.4281723545 0.7191157701 0.3076587387 -0.0637954287
914375000 0.3502712342 -0.0955996401 0.4570834442 0.6952834485 0.4595936009 0.6895608933 0.3193580991 -0.0891453238
914687500 0.3555551769 -0.1123166090 0.4878266674 0.6699287833 0.4908900100 0.6643461912 0.3300665413 -0.1122627854
915000000 0.3642574851 -0.1294065707 0.5178079337 0.6395836578 0.5202328383 0.6331119923 0.3383864583 -0.1389973846
915312500 0.3730237490 -0.1464094067 0.5447241009 0.6095527387 0.5470167978 0.6038576620 0.3401719353 -0.1641688980
915625000 0.3797899434 -0.1667645044 0.5693697402 0.5769616976 0.5726367900 0.5697760400 0.3387852030 -0.1880724659
915937500 0.3806060012 -0.1867715742 0.5899961140 0.5444039279 0.5926654800 0.5386028221 0.3336896667 -0.2075814976
916250000 0.3806928744 -0.2026635616 0.6092537517 0.5131165969 0.6117744746 0.5048777129 0.3269177687 -0.2193664270
916562500 0.3896978911 -0.2198468510 0.6149833509 0.4807226361 0.6151798426 0.4749540916 0.3422363251 -0.2242908796
916875000 0.3828344709 -0.2488846812 0.6376525077 0.4645308629 0.6387015423 0.4585549679 0.3452793952 -0.2602737746
917187500 0.3726388080 -0.2684439703 0.6604978399 0.4347534464 0.6629574861 0.4274856268 0.3358202999 -0.2878098917
917500000 0.3617060209 -0.2853701421 0.6788796006 0.4026618697 0.6806652857 0.3962470285 0.3217170918 -0.3104858549
917812500 0.3497894079 -0.3004688360 0.6953415248 0.3712809057 0.6963278421 0.3643889195 0.3055756809 -0.3282244487
918125000 0.3340086273 -0.3125186350 0.7096730017 0.3389415111 0.7098189875 0.3328618281 0.2872749155 -0.3412387732
918437500 0.3227572324 -0.3225035652 0.7223757433 0.3087872772 0.7233429524 0.3006743100 0.2707065191 -0.3508757221
918750000 0.3085956256 -0.3329699094 0.7356351809 0.2751583075 0.7351299969 0.2700098149 0.2577365568 -0.3604539795
919062500 0.2937698884 -0.3438695100 0.7468993859 0.2432178358 0.7475426449 0.2371403891 0.2387588460 -0.3711859061
919375000 0.2734420022 -0.3528682770 0.7577387903 0.2088379416 0.7570156455 0.2035428957 0.2202147886 -0.3746364804
919687500 0.2540215728 -0.3560521593 0.7653238391 0.1746640076 0.7641052649 0.1701782881 0.2040285848 -0.3823906097
920000000 0.2331886730 -0.3590869261 0.7750263629 0.1438027231 0.7744725096 0.1375195154 0.1811936269 -0.3853780221
920312500 0.2139604039 -0.3568241203 0.7828446226 0.1065857361 0.7820571230 0.1006515211 0.1624980993 -0.3849730825
920625000 0.1961665765 -0.3559716502 0.7875345790 0.0708325141 0.7858630370 0.0666926447 0.1422518168 -0.3860474671
920937500 0.1761815067 -0.3562825157 0.7939250345 0.0381024456 0.7927025884 0.0316091833 0.1185293885 -0.3819061417
921250000 0.1509322500 -0.3519555037 0.8001558432 -0.0026133088 0.7982167667 -0.0083941925 0.0977414027 -0.3741346709
921562500 0.1290183033 -0.3412633707 0.7982173383 -0.0410969990 0.7958404202 -0.0470581316 0.0797254673 -0.3654963247
921875000 0.1069030228 -0.3313946195 0.8001465139 -0.0753010682 0.7984333265 -0.0812151017 0.0586385510 -0.3591570843
922187500 0.0826441738 -0.3160450108 0.7997624535 -0.1181617735 0.7974648310 -0.1244594356 0.0326654669 -0.3453993032
922500000 0.0601674958 -0.2943007100 0.7933012638 -0.1592287242 0.7910867283 -0.1655802972 0.0106996718 -0.3234440217
922812500 0.0414597434 -0.2668465683 0.7831305541 -0.1971604672 0.7808618161 -0.2024235507 -0.0025896813 -0.2991504052
923125000 0.0337599611 -0.2346075000 0.7786519316 -0.2307995510 0.7766480695 -0.2373541927 -0.0148845869 -0.2781065004
923437500 0.0338074654 -0.2069069486 0.7726219319 -0.2740756645 0.7695228210 -0.2814556258 -0.0248196954 -0.2520907101
923750000 0.0453321052 -0.1891890443 0.7544306171 -0.3127287733 0.7500931901 -0.3198367637 -0.0298352965 -0.2310874836
924062500 0.0366491058 -0.1885874967 0.7446486214 -0.3428694495 0.7406295985 -0.3477952934 -0.0377433051 -0.2116561542
924375000 0.0203729615 -0.1669855877 0.7447012230 -0.3818583192 0.7406900810 -0.3875476773 -0.0487874418 -0.1913117460
924687500 0.0082184795 -0.1393598394 0.7381381532 -0.4348897954 0.7321970753 -0.4415717673 -0.0642712830 -0.1587589622
925000000 0.0050725678 -0.1092109238 0.7159168879 -0.4933958913 0.7095480112 -0.4985916597 -0.0685356450 -0.1173854749
925312500 0.0056750074 -0.0775296668 0.6827857862 -0.5443529806 0.6750331339 -0.5495274367 -0.0593681333 -0.0770939275
925625000 0.0118982253 -0.0487738926 0.6420380733 -0.5822855778 0.6362730238 -0.5850128640 -0.0438482246 -0.0484129015
925937500 0.0174757292 -0.0168298699 0.6106124077 -0.6228786282 0.6035833191 -0.6271564687 -0.0375348785 -0.0158327586
926250000 0.0324842380 0.0140208979 0.5693988015 -0.6662991099 0.5624525914 -0.6690620425 -0.0174481080 0.0212240844
926562500 0.0487316408 0.0409756091 0.5225651280 -0.7030905911 0.5150817798 -0.7050360777 0.0077230481 0.0518067459
926875000 0.0689435298 0.0708730358 0.4727618829 -0.7336435061 0.4659166527 -0.7351439737 0.0404991595 0.0800309170
927187500 0.1012257546 0.0928016743 0.4170083636 -0.7587923174 0.4110058851 -0.7596119845 0.0781076307 0.0935134292
927500000 0.1260884074 0.1045865211 0.3707803365 -0.7770168572 0.3637905053 -0.7786093555 0.1023637802 0.1013777088
927812500 0.1505661390 0.1203905621 0.3195890108 -0.7996997041 0.3127139100 -0.8011941456 0.1301584352 0.1177897882
928125000 0.1832437845 0.1306503337 0.2620869505 -0.8167644824 0.2544864231 -0.8165971614 0.1646057037 0.1273630423
928437500 0.2123519500 0.1349873954 0.2054139176 -0.8268175698 0.1974687958 -0.8268378193 0.1994357625 0.1293875253
928750000 0.2425852894 0.1342528494 0.1414562380 -0.8328381140 0.1347821308 -0.8319925023 0.2321103988 0.1246592388
929062500 0.2697731565 0.1255028407 0.0850232517 -0.8262541673 0.0780649024 -0.8252102151 0.2569246087 0.1134483837
929375000 0.2888301497 0.1158723234 0.0329107568 -0.8185971355 0.0261916744 -0.8172483141 0.2750701809 0.1089038606
929687500 0.3052904030 0.1093037252 -0.0133326507 -0.8134189256 -0.0213651493 -0.8120795801 0.2996840758 0.1066789514
930000000 0.3218165286 0.1010293194 -0.0702676430 -0.8058451489 -0.0743749952 -0.8035119626 0.3262771630 0.0955534637
930312500 0.3408496704 0.0960630001 -0.1188632614 -0.7893326106 -0.1269717340 -0.7866632032 0.3505359381 0.0793129935
930625000 0.3661395529 0.0772214810 -0.1717301743 -0.7723740230 -0.1764979678 -0.7705693447 0.3697300613 0.0547490605
930937500 0.3758683989 0.0480494158 -0.2178436372 -0.7492140091 -0.2219532448 -0.7467889018 0.3729562196 0.0273897332
931250000 0.3727824510 0.0277724604 -0.2597691919 -0.7329366792 -0.2650840848 -0.7290578261 0.3668610051 0.0160288891
931562500 0.3724976993 0.0121956678 -0.3088210523 -0.7104585263 -0.3136930086 -0.7069052348 0.3731118388 0.0065006177
931875000 0.3691832574 -0.0055074794 -0.3523008134 -0.6859049553 -0.3565376190 -0.6819385243 0.3768969883 -0.0085865713
932187500 0.3675318590 -0.0245847228 -0.4008468856 -0.6613382090 -0.4043144180 -0.6587802069 0.3737083779 -0.0256555356
932500000 0.3534400713 -0.0515187545 -0.4529291530 -0.6257766841 -0.4556022138 -0.6209887152 0.3635774790 -0.0389267023
932812500 0.3254695545 -0.0695336599 -0.4955114909 -0.5803331264 -0.4963566889 -0.5771486816 0.3535703962 -0.0480683240
933125000 0.2959322395 -0.0758665468 -0.5319363495 -0.5469891945 -0.5338011009 -0.5445144289 0.3354543679 -0.0601355164
933437500 0.2667337722 -0.0807336097 -0.5836984974 -0.5047478884 -0.5854974813 -0.5012120386 0.3091286083 -0.0560271255
933750000 0.2298029526 -0.0820772632 -0.6299313207 -0.4432686756 -0.6306996344 -0.4400002038 0.2898874645 -0.0424235233
934062500 0.1826298393 -0.0723945885 -0.6631080054 -0.3788169415 -0.6635576032 -0.3780681762 0.2759398232 -0.0275681785
934375000 0.1366584942 -0.0405857503 -0.6945728374 -0.3073089856 -0.6946369329 -0.3061850354 0.2594255501 -0.0049215516
934687500 0.1076075650 -0.0015917340 -0.7094611846 -0.2315137291 -0.7114241449 -0.2316866092 0.2524059769 0.0184675907
935000000 0.0718389065 0.0336975702 -0.7273773830 -0.1546150720 -0.7316607867 -0.1545590462 0.2367713667 0.0441117608
935312500 0.0309834922 0.0967638742 -0.7303352470 -0.0591492709 -0.7346545176 -0.0581612407 0.2230409978 0.0912860898
935625000 0.0206452686 0.1820647245 -0.7072635692 0.0294090661 -0.7131453894 0.0311822430 0.2372652207 0.1513327202
935937500 0.0259873473 0.2592707008 -0.6782456777 0.1133290479 -0.6855148446 0.1166272263 0.2624750117 0.2030793164
936250000 0.0466824165 0.3457913959 -0.6272393243 0.2005302795 -0.6346684710 0.2052388858 0.3101160048 0.2555299310
936562500 0.0972568441 0.4270884352 -0.5531556963 0.2684109945 -0.5599666119 0.2750912719 0.3729434268 0.2880278314
936875000 0.1623111450 0.4943065381 -0.4689268578 0.3159518459 -0.4742610717 0.3234882947 0.4472090746 0.3076116580
937187500 0.2518475337 0.5407196873 -0.3786767380 0.3287238866 -0.3828021412 0.3368360731 0.5255801369 0.2911786410
937500000 0.3351095736 0.5451417306 -0.3194938601 0.3170378910 -0.3218370342 0.3270005741 0.5711598689 0.2519456837
937812500 0.3991060259 0.5488988590 -0.2714664922 0.3040107814 -0.2725390658 0.3132888992 0.6030085507 0.2242600975
938125000 0.4595227715 0.5466491307 -0.2299404112 0.2988023896 -0.2282768277 0.3084779165 0.6316908974 0.2010701399
938437500 0.5185756401 0.5354675908 -0.1919434053 0.2868383311 -0.1896542654 0.2956011457 0.6513126317 0.1635090534
938750000 0.5660695659 0.5220830502 -0.1653948421 0.2838389969 -0.1617116335 0.2926349659 0.6594515195 0.1529615085
939062500 0.6141270684 0.5056006910 -0.1299792466 0.2838751819 -0.1243753244 0.2912478015 0.6898398665 0.1340841915
939375000 0.6602722077 0.4835981837 -0.0941914540 0.2740080809 -0.0879051283 0.2799255829 0.7047310863 0.0957007467
939687500 0.6995184940 0.4553363197 -0.0661623757 0.2621534180 -0.0595040943 0.2667555473 0.7032906015 0.0716608810
940000000 0.7251597906 0.4258260815 -0.0343777245 0.2535328793 -0.0267945564 0.2568763621 0.7161000453 0.0534834922
940312500 0.7475494703 0.3999605695 -0.0035746771 0.2318407603 0.0057733378 0.2348388194 0.7126085790 0.0137905143
940625000 0.7669497928 0.3766122601 0.0182254558 0.2055412272 0.0245779525 0.2053381482 0.6894073267 -0.0044470444
940937500 0.7861662502 0.3546624935 0.0291708322 0.1882237006 0.0356219559 0.1878945165 0.6833869733 -0.0000872277
941250000 0.7958822220 0.3330854093 0.0462446522 0.1774585439 0.0532306054 0.1767194650 0.6852551522 -0.0235579304
941562500 0.8078016019 0.3135687642 0.0810025487 0.1603370089 0.0885859313 0.1563224474 0.6413746543 -0.0430762593
941875000 0.8161323160 0.3049576220 0.1048995049 0.1089640601 0.1082581236 0.1016985778 0.5979857487 -0.0007425328
942187500 0.8367250613 0.2963807361 0.0894083746 0.0614006501 0.0889146424 0.0569031427 0.6100202582 0.0634832660
942500000 0.8578029239 0.2771471062 0.0641473695 0.0418244979 0.0634571694 0.0399841288 0.6633797380 0.0903478382
942812500 0.8722292852 0.2584597857 0.0531982277 0.0374463657 0.0534511652 0.0355402749 0.6891457701 0.0909480958
943125000 0.8834941906 0.2397367196 0.0497427303 0.0253204762 0.0493501427 0.0234757644 0.7291730355 0.1191067117
943437500 0.8955103605 0.2248341445 0.0381588665 0.0114890695 0.0373304105 0.0103981444 0.7986398789 0.1058370451
943750000 0.9102723548 0.2093561225 0.0230358883 0.0067182594 0.0223795369 0.0063483781 0.8369550955 0.0576769829
944062500 0.9230534696 0.1901101113 0.0124529401 0.0082196731 0.0121689337 0.0081343596 0.8307590082 0.0296385188
944375000 0.9341538246 0.1689847880 0.0065013124 0.0112196113 0.0064512571 0.0113256691 0.8603337621 0.0237168997
944687500 0.9410014514 0.1462271284 0.0044071829 0.0135557247 0.0045456205 0.0135511896 0.8859324070 -0.0097632199
945000000 0.9441612607 0.1279678474 0.0034521044 0.0138003480 0.0035964581 0.0137369495 0.8923804610 -0.0454383799
945312500 0.9474237788 0.1120328235 0.0018484093 0.0136123733 0.0020132552 0.0136113577 0.8884144177 -0.0685688704
945625000 0.9515111953 0.0963657134 0.0014577771 0.0134615518 0.0016131759 0.0133393943 0.8938408365 -0.0864793923
945937500 0.9569488626 0.0791356737 0.0001074964 0.0129012678 0.0002513168 0.0129492074 0.8910409227 -0.1081693490
946250000 0.9605837166 0.0607191400 -0.0003762982 0.0133855774 -0.0001053808 0.0133739439 0.8959093046 -0.1188297767
946562500 0.9595324600 0.0458149288 0.0001339149 0.0133118441 0.0003937186 0.0132734821 0.9041261318 -0.1346523520
946875000 0.9580801688 0.0330326365 0.0007624944 0.0119797156 0.0009555068 0.0118883948 0.9113617549 -0.1604608499
947187500 0.9599262733 0.0223110707 0.0002099215 0.0105612689 0.0003365492 0.0104758576 0.9061362327 -0.1874550992
947500000 0.9631017130 0.0109727535 -0.0009117109 0.0097854063 -0.0008383324 0.0098187675 0.8878961888 -0.2036712360
947812500 0.9655441808 -0.0033242251 -0.0015111526 0.0104656540 -0.0013117624 0.0104774052 0.8789113323 -0.2009593676
948125000 0.9650699116 -0.0177442003 -0.0006046814 0.0105345279 -0.0003874105 0.0104772791 0.8920290828 -0.2052535500
948437500 0.9633567434 -0.0311239466 -0.0000828357 0.0096149097 0.0000766421 0.0095570411 0.8971473760 -0.2241912258
948750000 0.9604881172 -0.0414973121 0.0002318708 0.0092085412 0.0004403000 0.0091575591 0.8934787569 -0.2402112388
949062500 0.9610820037 -0.0502167954 0.0011319342 0.0081544232 0.0012546861 0.0080350746 0.8931840452 -0.2542061422
949375000 0.9625225305 -0.0615375028 0.0011109334 0.0066281741 0.0011904396 0.0065438146 0.8877150854 -0.2730186101
949687500 0.9613744082 -0.0714959864 0.0004910548 0.0059893330 0.0005759744 0.0059786838 0.8753684471 -0.2746391460
950000000 0.9606988035 -0.0840740116 0.0009223981 0.0056426804 0.0009813457 0.0055448057 0.8843588456 -0.2825949012
950312500 0.9589137598 -0.0907148670 0.0010206141 0.0043913458 0.0010466041 0.0043034003 0.8843862038 -0.2993018290
950625000 0.9601183727 -0.0995935285 0.0005677052 0.0035066140 0.0006137263 0.0034811208 0.8722248339 -0.3142446519
950937500 0.9582180309 -0.1115164678 0.0000760108 0.0030580948 0.0000997702 0.0030100703 0.8650195571 -0.3128448365
951250000 0.9556628904 -0.1196928088 -0.0002610190 0.0028526976 -0.0002104887 0.0028535069 0.8686562501 -0.3193102802
951562500 0.9551743166 -0.1255331509 0.0000497817 0.0027859118 0.0001172124 0.0027448129 0.8737555599 -0.3300773460
951875000 0.9542380217 -0.1358555032 0.0003974190 0.0019996162 0.0004220771 0.0019179932 0.8685645093 -0.3493436053
952187500 0.9512118041 -0.1454892694 0.0002460385 0.0011955187 0.0002507213 0.0011237278 0.8593539796 -0.3609397196
952500000 0.9494445115 -0.1499467356 -0.0003222227 0.0005707807 -0.0003365528 0.0005444536 0.8511972138 -0.3676166020
952812500 0.9487084504 -0.1582639693 -0.0006179579 0.0003607733 -0.0006029562 0.0003175747 0.8397364501 -0.3761845787
953125000 0.9450890124 -0.1685691879 -0.0008657632 0.0001606357 -0.0008777172 0.0001526562 0.8313410402 -0.3781987858
953437500 0.9430270557 -0.1746486104 -0.0009211853 -0.0000660111 -0.0009265121 -0.0001123614 0.8255833542 -0.3734226925
953750000 0.9408424612 -0.1795810808 -0.0011828457 -0.0003102988 -0.0012188230 -0.0002777447 0.8359359616 -0.3759634726
954062500 0.9337956963 -0.1879822453 -0.0010923596 -0.0002948234 -0.0011006525 -0.0002849894 0.8319098257 -0.3914190046
954375000 0.9333807762 -0.1894786971 -0.0010227132 -0.0006512807 -0.0010259533 -0.0006747339 0.8216641024 -0.3966494476
954687500 0.9347212376 -0.1955715469 -0.0014085626 -0.0009716545 -0.0014065372 -0.0009656996 0.8186092172 -0.4018905417
955000000 0.9315279593 -0.2049186155 -0.0014203591 -0.0009766768 -0.0014554806 -0.0009780238 0.8097241453 -0.4076619259
955312500 0.9294526547 -0.2081508002 -0.0013546854 -0.0008872307 -0.0013481456 -0.0008419311 0.8046377524 -0.4135942625
955625000 0.9293455137 -0.2151360106 -0.0010156214 -0.0013729204 -0.0010419300 -0.0013815800 0.7894727374 -0.4164428603
955937500 0.9272219354 -0.2222809369 -0.0012415395 -0.0018478385 -0.0013286843 -0.0018453094 0.7825734832 -0.3935618543
956250000 0.9229170836 -0.2265830108 -0.0015024140 -0.0017525967 -0.0015397266 -0.0017199045 0.8017620884 -0.3911879096
956562500 0.9210383543 -0.2310022788 -0.0014826422 -0.0018431604 -0.0014979378 -0.0018016503 0.8059969291 -0.4049760919
956875000 0.9164137109 -0.2371797785 -0.0010585287 -0.0020904933 -0.0011040102 -0.0021341453 0.8072595259 -0.4081375253
957187500 0.9141255665 -0.2384500433 -0.0014280458 -0.0028584950 -0.0015211196 -0.0028509900 0.8087821687 -0.4217833955
957500000 0.9135861173 -0.2403085562 -0.0018674038 -0.0025994055 -0.0019191704 -0.0025665319 0.7959208827 -0.4323818921
957812500 0.9155464115 -0.2459538688 -0.0017669080 -0.0025262446 -0.0017770033 -0.0024552383 0.7837262348 -0.4249292150
958125000 0.9129972591 -0.2517814579 -0.0014403032 -0.0028183092 -0.0014897324 -0.0028484845 0.7915593337 -0.4184027172
958437500 0.9120217000 -0.2582852785 -0.0015922386 -0.0032734233 -0.0017081939 -0.0032602730 0.7941564323 -0.4269547681
958750000 0.9063029693 -0.2661258670 -0.0019858474 -0.0034356805 -0.0020615073 -0.0033934725 0.7921889920 -0.4285931727
959062500 0.9023810225 -0.2655124758 -0.0021873342 -0.0031929356 -0.0022192784 -0.0031282427 0.7980296363 -0.4316634101
959375000 0.9007168275 -0.2694088924 -0.0018602212 -0.0031978388 -0.0018685845 -0.0032112597 0.7956735529 -0.4388685841
959687500 0.8968754388 -0.2738535081 -0.0020033493 -0.0036286644 -0.0020870554 -0.0035905652 0.7989208278 -0.4428656770
960000000 0.8941716714 -0.2750981174 -0.0017875064 -0.0038416280 -0.0018550197 -0.0038282400 0.7971560086 -0.4575327551
960312500 0.8929423255 -0.2784070649 -0.0022270397 -0.0047622178 -0.0023817786 -0.0047166072 0.7828176862 -0.4620586292
960625000 0.8890356946 -0.2807326787 -0.0034147490 -0.0046992186 -0.0035551573 -0.0045890819 0.7821682865 -0.4512709085
960937500 0.8875941165 -0.2823706579 -0.0037418735 -0.0034112429 -0.0037134718 -0.0032970484 0.7865008112 -0.4523933227
961250000 0.8853616469 -0.2868585052 -0.0030188160 -0.0033385785 -0.0030251120 -0.0033230446 0.7948657505 -0.4625436240
961562500 0.8785997749 -0.2868445652 -0.0030224434 -0.0036031897 -0.0030958988 -0.0035347391 0.7922718072 -0.4750392710
961875000 0.8849367674 -0.2815597431 -0.0029212115 -0.0037824288 -0.0030151163 -0.0037838927 0.7875290724 -0.4855015976
962187500 0.8888641698 -0.2879388795 -0.0035001747 -0.0038149361 -0.0035748767 -0.0037274872 0.7711412423 -0.4949587913
962500000 0.8858020286 -0.2946248350 -0.0035479876 -0.0034984486 -0.0035748644 -0.0033819811 0.7492895327 -0.4830622982
962812500 0.8821060478 -0.2985447306 -0.0034486067 -0.0033718045 -0.0034950032 -0.0033053921 0.7636767197 -0.4595368668
963125000 0.8804010384 -0.2961562931 -0.0032779350 -0.0031990164 -0.0033048332 -0.0031811168 0.7853676815 -0.4703109524
963437500 0.8787919936 -0.2975334092 -0.0031245090 -0.0033985302 -0.0031939787 -0.0033833675 0.7831156961 -0.4901943185
963750000 0.8843225518 -0.2973010171 -0.0031415661 -0.0037028284 -0.0032320213 -0.0036641411 0.7739790083 -0.5011565238
964062500 0.8879006888 -0.3034184803 -0.0037229294 -0.0038995762 -0.0038355355 -0.0037868451 0.7609849209 -0.5031373392
964375000 0.8893726530 -0.3125036137 -0.0043328743 -0.0031770923 -0.0043482442 -0.0029901192 0.7501602241 -0.4994341627
964687500 0.8826729050 -0.3221639723 -0.0036925268 -0.0022222022 -0.0036369106 -0.0021404065 0.7585694530 -0.4839742250
965000000 0.8740670322 -0.3233709019 -0.0027845384 -0.0025423930 -0.0027686914 -0.0025348930 0.7685439459 -0.4989208318
965312500 0.8682572396 -0.3225001279 -0.0023984973 -0.0034480142 -0.0024860591 -0.0034326336 0.7609178714 -0.5081909649
965625000 0.8704849074 -0.3154732472 -0.0031472121 -0.0042677501 -0.0032896599 -0.0041414838 0.7528645202 -0.5046105527
965937500 0.8796261160 -0.3178439036 -0.0039938514 -0.0039357701 -0.0041318868 -0.0038535029 0.7524719407 -0.5052937790
966250000 0.8816491176 -0.3274369064 -0.0047744401 -0.0032213691 -0.0047911732 -0.0030062163 0.7505481244 -0.4987854761
966562500 0.8775490395 -0.3373931903 -0.0040021810 -0.0019301037 -0.0039234197 -0.0018672826 0.7644672283 -0.4962901445
966875000 0.8717130525 -0.3421575902 -0.0032261104 -0.0024037561 -0.0032582715 -0.0023831134 0.7735576453 -0.5153003807
967187500 0.8702199228 -0.3464496983 -0.0030903028 -0.0027354703 -0.0031165009 -0.0027182695 0.7685661168 -0.5330497808
967500000 0.8599930822 -0.3517354251 -0.0032013198 -0.0030195523 -0.0032606388 -0.0029830067 0.7493387439 -0.5439944829
967812500 0.8546083920 -0.3441001093 -0.0034147881 -0.0031899762 -0.0035021648 -0.0031548027 0.7314981507 -0.5371790237
968125000 0.8569104579 -0.3439829341 -0.0040002835 -0.0029194908 -0.0040631996 -0.0027844877 0.7246969824 -0.5299447838
968437500 0.8624940777 -0.3459606639 -0.0039094900 -0.0021505839 -0.0038666963 -0.0020614430 0.7296437361 -0.5121984068
968750000 0.8621880378 -0.3546649616 -0.0031820324 -0.0017902534 -0.0031515299 -0.0017777704 0.7445397445 -0.5159172730
969062500 0.8592614092 -0.3587760482 -0.0023013673 -0.0023177310 -0.0022847830 -0.0023468835 0.7459445200 -0.5249908482
969375000 0.8552666491 -0.3674441450 -0.0026160426 -0.0034713986 -0.0027391735 -0.0034551423 0.7467340576 -0.5295370259
969687500 0.8445490294 -0.3722586501 -0.0036878954 -0.0034464866 -0.0037684872 -0.0032943954 0.7515755066 -0.5409836654
970000000 0.8305511267 -0.3712751165 -0.0038768283 -0.0026478788 -0.0039055896 -0.0025545666 0.7392493911 -0.5568320909
970312500 0.8256789233 -0.3555085065 -0.0038034253 -0.0022879198 -0.0038009175 -0.0021755231 0.7212726648 -0.5570945415
970625000 0.8374211927 -0.3542145778 -0.0034499033 -0.0023470101 -0.0035302875 -0.0022820340 0.7114529253 -0.5487759929
970937500 0.8445163313 -0.3645902876 -0.0036429638 -0.0017048522 -0.0036174272 -0.0015774755 0.7106585461 -0.5356634390
971250000 0.8360076284 -0.3799478217 -0.0027536337 -0.0014769961 -0.0027337128 -0.0014775420 0.7220248870 -0.5315927674
971562500 0.8182484573 -0.3855370024 -0.0022854822 -0.0016381055 -0.0022600933 -0.0016093059 0.7277868269 -0.5418713046
971875000 0.8025360657 -0.3755889504 -0.0017853453 -0.0021598416 -0.0018319719 -0.0021582043 0.7176945320 -0.5441922524
972187500 0.8018196653 -0.3784326662 -0.0013703469 -0.0026958523 -0.0013935464 -0.0027324474 0.7230523249 -0.5395413237
972500000 0.7718945798 -0.3770351965 -0.0010387792 -0.0035160066 -0.0011056445 -0.0035684704 0.7268745929 -0.5528648660
972812500 0.7470645745 -0.3347886804 -0.0011999498 -0.0062215246 -0.0015336576 -0.0064260415 0.7112847473 -0.5616880135
973125000 0.7855598666 -0.2906539416 -0.0064892981 -0.0057946669 -0.0067432285 -0.0052750806 0.6924423369 -0.5497645227
973437500 0.8226761019 -0.3040990233 -0.0053092531 -0.0023023994 -0.0052470976 -0.0021638109 0.7039272915 -0.5269952438
973750000 0.8201990864 -0.3190538975 -0.0042072773 -0.0019241381 -0.0041790290 -0.0018034220 0.7255600232 -0.5321136628
974062500 0.8217153347 -0.3075299883 -0.0034993522 -0.0020686246 -0.0034956478 -0.0020245292 0.7301502548 -0.5509043774
974375000 0.8350632671 -0.3106867651 -0.0032103289 -0.0023518595 -0.0032241409 -0.0022591964 0.7203892619 -0.5652162846
974687500 0.8483357345 -0.3161867281 -0.0027932163 -0.0033465034 -0.0028947764 -0.0033426555 0.7047835050 -0.5667652692
975000000 0.8516590760 -0.3296670952 -0.0038537654 -0.0042664176 -0.0039895497 -0.0041564944 0.6959791864 -0.5587276313
975312500 0.8447031510 -0.3371280124 -0.0053707941 -0.0042483620 -0.0055412275 -0.0041085749 0.6917667494 -0.5470046943
975625000 0.8404546001 -0.3298806985 -0.0072301369 -0.0026211525 -0.0072629744 -0.0022368335 0.6982737744 -0.5360459121
975937500 0.8533218681 -0.3292005892 -0.0063054978 -0.0000913085 -0.0061604017 0.0001433226 0.7084299473 -0.5357872258
976250000 0.8588199548 -0.3372235661 -0.0041023052 0.0004980729 -0.0039895414 0.0005143177 0.7262475365 -0.5370503851
976562500 0.8560624486 -0.3415147389 -0.0031300504 -0.0005104746 -0.0031136059 -0.0004841904 0.7350980968 -0.5595491365
976875000 0.8633039080 -0.3430371076 -0.0029784530 -0.0016021358 -0.0030175463 -0.0016167102 0.7256059944 -0.5793547154
977187500 0.8685615238 -0.3537692393 -0.0038630787 -0.0023466503 -0.0039730690 -0.0022341807 0.7046029001 -0.5915168288
977500000 0.8667150953 -0.3665594314 -0.0049312829 -0.0019543744 -0.0049874525 -0.0017848009 0.6764609291 -0.5762353893
977812500 0.8558711984 -0.3736009064 -0.0057789631 -0.0014605597 -0.0058118470 -0.0012776156 0.6919547668 -0.5482464528
978125000 0.8429308648 -0.3732940946 -0.0059845834 0.0004289966 -0.0059024562 0.0006744903 0.7061347527 -0.5557981173
978437500 0.8410723934 -0.3621674513 -0.0051382923 0.0019117047 -0.0049828938 0.0020767197 0.7081191190 -0.5662275251
978750000 0.8485706286 -0.3525112550 -0.0031465437 0.0028023460 -0.0029183958 0.0028258989 0.7025734864 -0.5700850508
979062500 0.8626701207 -0.3609219146 -0.0009573186 0.0018691962 -0.0008306310 0.0017233831 0.6976323905 -0.5741922557
979375000 0.8649826645 -0.3729755290 -0.0006966457 -0.0002266683 -0.0007525898 -0.0003057310 0.6906101402 -0.5676041126
979687500 0.8608766187 -0.3834853831 -0.0017945957 -0.0010717747 -0.0018667169 -0.0010484123 0.6956553955 -0.5592242567
980000000 0.8557752547 -0.3889383323 -0.0022738217 -0.0007666803 -0.0022951514 -0.0006901115 0.7112422999 -0.5661953545
980312500 0.8487693983 -0.3892454197 -0.0020709550 -0.0007554877 -0.0020437849 -0.0007259557 0.7084413506 -0.5778948049
980625000 0.8413047739 -0.3893117203 -0.0024912412 -0.0015674929 -0.0026198726 -0.0015552689 0.7042116505 -0.5851991678
980937500 0.8421139796 -0.3838623791 -0.0039922360 -0.0011547497 -0.0040828973 -0.0009402605 0.6908785467 -0.5942477938
981250000 0.8418118121 -0.3805466189 -0.0042736562 0.0008661799 -0.0041767353 0.0010809549 0.6759743822 -0.5791977620
981562500 0.8491786628 -0.3773896879 -0.0025803578 0.0016887673 -0.0024671409 0.0017129413 0.6898621872 -0.5678551376
981875000 0.8573643570 -0.3813684737 -0.0016674199 0.0014709319 -0.0015713785 0.0014768933 0.6935044198 -0.5739749771
982187500 0.8596689549 -0.3904397493 -0.0009177668 0.0010816610 -0.0008659233 0.0010813084 0.6975130810 -0.5728898702
982500000 0.8560903420 -0.3993414721 -0.0004341534 0.0006475424 -0.0003709507 0.0005864659 0.7034240554 -0.5814726544
982812500 0.8512065388 -0.4043946671 -0.0001215637 0.0000274060 -0.0001223783 -0.0000014793 0.6979112471 -0.5941757871
983125000 0.8462433011 -0.4053788393 0.0002822738 -0.0009611086 0.0002502014 -0.0010756113 0.6862158600 -0.5904006046
983437500 0.8414536238 -0.4075548699 -0.0008361528 -0.0022825789 -0.0009814339 -0.0022816205 0.6941588990 -0.5889037901
983750000 0.8386846224 -0.4059418988 -0.0021638928 -0.0022463368 -0.0023058366 -0.0021582432 0.6870822260 -0.6019029845
984062500 0.8370113536 -0.4078654859 -0.0036095710 -0.0010495233 -0.0036406603 -0.0008123693 0.6720898848 -0.5921696405
984375000 0.8371034421 -0.4062615773 -0.0030266733 0.0015328406 -0.0027980036 0.0016817433 0.6822214613 -0.5839733433
984687500 0.8343148433 -0.4032547556 -0.0006569824 0.0019432663 -0.0004857801 0.0018930646 0.6827545160 -0.5890788225
985000000 0.8408886384 -0.4013115999 0.0010690900 0.0006102360 0.0011183569 0.0004534745 0.6807118144 -0.5874075289
985312500 0.8458701596 -0.4069590137 0.0012772125 -0.0009956338 0.0012355377 -0.0011005777 0.6909732458 -0.5872088317
985625000 0.8478649676 -0.4155314530 0.0008042392 -0.0024947682 0.0006636404 -0.0025928612 0.6946220015 -0.5969990820
985937500 0.8392670804 -0.4219343842 -0.0005923879 -0.0030040794 -0.0007008692 -0.0029568829 0.6906972321 -0.6090279057
986250000 0.8351914217 -0.4208069964 -0.0013215877 -0.0030991961 -0.0014401546 -0.0030547982 0.6799736125 -0.6199761508
986562500 0.8308170702 -0.4212146285 -0.0026670995 -0.0030682222 -0.0028098208 -0.0029332365 0.6587907649 -0.6164942372
986875000 0.8299020251 -0.4212437580 -0.0036048486 -0.0016008732 -0.0035519212 -0.0014023142 0.6510807838 -0.5953213698
987187500 0.8221789289 -0.4192751865 -0.0036163520 -0.0005121841 -0.0036252057 -0.0003216750 0.6623592377 -0.5901418116
987500000 0.8279625819 -0.4117000864 -0.0025656483 0.0011097962 -0.0024009535 0.0011897328 0.6675948273 -0.5813105758
987812500 0.8308134032 -0.4144487867 -0.0006073807 0.0010599057 -0.0005109408 0.0009872996 0.6860991279 -0.5867028474
988125000 0.8319922912 -0.4168709248 -0.0000987041 -0.0005071873 -0.0001471245 -0.0005979522 0.6874940653 -0.6078387623
988437500 0.8342220207 -0.4207446821 -0.0006970105 -0.0005403507 -0.0007105880 -0.0004847388 0.6749817943 -0.6215178457
988750000 0.8319820989 -0.4261348301 0.0004111412 -0.0006853999 0.0004177951 -0.0007922751 0.6499933425 -0.6169753504
989062500 0.8294432485 -0.4228094437 0.0000666371 -0.0027594774 -0.0001299515 -0.0028224860 0.6522611438 -0.5959156639
989375000 0.8319827883 -0.4257677988 -0.0016617972 -0.0023779121 -0.0017144900 -0.0022429319 0.6608000255 -0.5970095134
989687500 0.8287381363 -0.4308091688 -0.0016785566 -0.0018428314 -0.0016821006 -0.0017651465 0.6652130432 -0.5986408699
990000000 0.8240086655 -0.4338716294 -0.0019697527 -0.0020628031 -0.0020245416 -0.0020176860 0.6553838174 -0.6053099754
990312500 0.8195516356 -0.4312143738 -0.0025678112 -0.0014637876 -0.0025988768 -0.0013573265 0.6508386670 -0.5927108857
990625000 0.8209650235 -0.4289154453 -0.0022664079 -0.0006656502 -0.0022498916 -0.0006314993 0.6637937042 -0.5872751152
990937500 0.8245978590 -0.4318804155 -0.0019609240 -0.0002728323 -0.0018516514 -0.0002192702 0.6709160784 -0.5949190516
991250000 0.8180082267 -0.4386529267 -0.0011373621 -0.0006460142 -0.0011597667 -0.0006815332 0.6689156923 -0.6045537171
991562500 0.8113416153 -0.4298471784 -0.0015750906 -0.0011538992 -0.0016491508 -0.0010895726 0.6635186236 -0.6069437971
991875000 0.8193775065 -0.4228464581 -0.0017531004 -0.0002985371 -0.0017011633 -0.0001921671 0.6576123364 -0.6032593059
992187500 0.8274173773 -0.4274193387 -0.0002323660 -0.0004438709 -0.0001506019 -0.0005734440 0.6534419265 -0.5983314795
992500000 0.8256101824 -0.4355225884 -0.0004822433 -0.0022879204 -0.0006017388 -0.0022898313 0.6659120805 -0.5872135336
992812500 0.8212830847 -0.4371304781 -0.0017878972 -0.0025830280 -0.0018961452 -0.0024964478 0.6768301664 -0.6002252213
993125000 0.8208824147 -0.4371470418 -0.0027038965 -0.0024543260 -0.0028117863 -0.0023854663 0.6754420206 -0.6070373058
993437500 0.8187805455 -0.4409539813 -0.0039135074 -0.0013943756 -0.0039790232 -0.0011927171 0.6749598918 -0.6212856652
993750000 0.8145942437 -0.4437181085 -0.0039579310 0.0005482124 -0.0038352030 0.0007734774 0.6602769239 -0.6291742793
994062500 0.8090959743 -0.4402413894 -0.0018926487 0.0019610282 -0.0017053664 0.0019558934 0.6471332913 -0.6253158907
994375000 0.8075977818 -0.4312092501 -0.0001498091 0.0008737573 -0.0000791484 0.0007846539 0.6376992522 -0.6134324414
994687500 0.8186146784 -0.4267915135 0.0002375288 -0.0004523686 0.0002032106 -0.0005157332 0.6453643342 -0.6012389434
995000000 0.8222310922 -0.4356071658 0.0000797260 -0.0017552731 -0.0000045107 -0.0018634187 0.6456511479 -0.5975545833
995312500 0.8231599959 -0.4425113911 -0.0013515456 -0.0029091841 -0.0015121402 -0.0028590718 0.6641491382 -0.5934478314
995625000 0.8156239067 -0.4514083681 -0.0034549156 -0.0022385618 -0.0035492679 -0.0020176199 0.6699902574 -0.6100198036
995937500 0.8048750270 -0.4449864543 -0.0035284922 -0.0002474901 -0.0034307039 -0.0001178284 0.6626449502 -0.6180204255
996250000 0.8068810032 -0.4356634750 -0.0028152849 0.0003505661 -0.0027838420 0.0004144437 0.6557546452 -0.6157933927
996562500 0.8201414205 -0.4372918359 -0.0025813229 0.0006438661 -0.0025225098 0.0006923936 0.6635695616 -0.6208789482
996875000 0.8229039192 -0.4461310144 -0.0022398248 0.0013506980 -0.0021577606 0.0014109433 0.6570084172 -0.6348352417
997187500 0.8174652511 -0.4537731567 -0.0013021962 0.0019025128 -0.0011982465 0.0019504030 0.6355207232 -0.6397299536
997500000 0.8106400562 -0.4581961532 0.0005970406 0.0019074733 0.0007646608 0.0017548889 0.6117650012 -0.6211766132
997812500 0.8015655240 -0.4573523913 0.0016065504 -0.0009643943 0.0014348925 -0.0011505689 0.6224801458 -0.5871933145
998125000 0.7940231879 -0.4460161668 -0.0005802711 -0.0020532528 -0.0007637677 -0.0020344507 0.6518403674 -0.5824887484
998437500 0.8058395371 -0.4352799982 -0.0019138232 -0.0010713705 -0.0019461259 -0.0009432467 0.6679437423 -0.5993000781
998750000 0.8157453662 -0.4414171144 -0.0015182689 -0.0001693108 -0.0014870620 -0.0001455218 0.6663155859 -0.6157023712
999062500 0.8186921903 -0.4521196527 -0.0011984449 -0.0001990456 -0.0011826429 -0.0001818429 0.6602567256 -0.6258927104
999375000 0.8123907420 -0.4601569516 -0.0013180285 -0.0002523537 -0.0013131928 -0.0002168535 0.6492168482 -0.6340102630
999687500 0.7980718266 -0.4610063669 -0.0011791908 0.0004071961 -0.0011058548 0.0004441043 0.6305760043 -0.6264857506
1000000000 0.7986225554 -0.4469341681 -0.0000205822 0.0001578792 0.0000137582 0.0001008346 0.6361807315 -0.6170284015
1000312500 0.8104506390 -0.4514049481 0.0002547751 -0.0013139949 0.0001679113 -0.0014236943 0.6315543075 -0.6227647911
1000625000 0.8063399345 -0.4575638330 -0.0017770854 -0.0026495920 -0.0019925509 -0.0025376690 0.6192839405 -0.6098048297
1000937500 0.7994129612 -0.4542534375 -0.0038677849 -0.0003023884 -0.0038065788 -0.0000092926 0.6291596023 -0.5836344747
1001250000 0.8019747417 -0.4517757753 -0.0015729197 0.0020482405 -0.0013368176 0.0020184578 0.6614231545 -0.5861192607
1001562500 0.8008748197 -0.4546524454 -0.0000147713 0.0007210630 -0.0000081074 0.0006206431 0.6689814708 -0.6074635801
1001875000 0.7970680935 -0.4499424659 -0.0004545640 -0.0002222343 -0.0005258641 -0.0001985589 0.6583333463 -0.6178947895
1002187500 0.8061225379 -0.4501125249 -0.0006606637 0.0001587908 -0.0006420234 0.0001673341 0.6619926158 -0.6234553315
1002500000 0.8109484711 -0.4565641232 -0.0001848573 0.0000905805 -0.0001680193 0.0000572363 0.6542097991 -0.6335970316
1002812500 0.8043055506 -0.4660930238 -0.0000805937 -0.0004441590 -0.0001349929 -0.0004809741 0.6432033656 -0.6369836363
1003125000 0.7983549517 -0.4681765054 -0.0004201204 -0.0007320157 -0.0004701687 -0.0007271023 0.6361543316 -0.6388824835
1003437500 0.7872645760 -0.4629308071 -0.0006584724 -0.0004402030 -0.0006766724 -0.0003642624 0.6181830737 -0.6318109250
1003750000 0.7889070709 -0.4480280339 0.0003125826 -0.0009243608 0.0002901711 -0.0010424630 0.6145306189 -0.6114510825
1004062500 0.8017277454 -0.4461091013 -0.0008173128 -0.0022488798 -0.0009968280 -0.0022567483 0.6288400238 -0.5954145217
1004375000 0.8084571812 -0.4543024056 -0.0025020787 -0.0016494146 -0.0025954611 -0.0015095880 0.6459021069 -0.6034356856
1004687500 0.8060541917 -0.4591439511 -0.0031824110 0.0000789113 -0.0031413970 0.0002691071 0.6396965223 -0.6063410779
1005000000 0.8053360354 -0.4616156863 -0.0016754960 0.0017175275 -0.0014763527 0.0017129682 0.6524535887 -0.6009281227
1005312500 0.8063141811 -0.4696702876 -0.0002350507 0.0010535628 -0.0001988950 0.0009991098 0.6603901303 -0.6164137487
1005625000 0.7978504289 -0.4793884058 -0.0000306737 0.0003130648 -0.0000558858 0.0002835335 0.6523799256 -0.6303170935
1005937500 0.7798601295 -0.4794679761 -0.0002784708 0.0000336956 -0.0002780384 0.0000355760 0.6382558767 -0.6305287671
1006250000 0.7683598988 -0.4583286747 0.0000564939 0.0003545435 0.0001164758 0.0003427434 0.6335599289 -0.6213236543
1006562500 0.7873666994 -0.4395468337 0.0009030356 -0.0007593812 0.0008304424 -0.0008679414 0.6364032944 -0.6145093329
1006875000 0.8023243304 -0.4474171602 -0.0002123142 -0.0019554686 -0.0003314596 -0.0019599288 0.6415556801 -0.6097105510
1007187500 0.8046113690 -0.4563818122 -0.0016275321 -0.0016105190 -0.0017144674 -0.0014690316 0.6482701166 -0.6152991722
1007500000 0.8040860421 -0.4615410746 -0.0017923476 -0.0003866793 -0.0017242733 -0.0003249312 0.6507127222 -0.6234625244
1007812500 0.8029814015 -0.4691559927 -0.0012851387 0.0000180601 -0.0012689849 0.0000539292 0.6342351204 -0.6276986486
1008125000 0.7980501467 -0.4747235306 -0.0011666065 -0.0000664876 -0.0011982131 -0.0000444650 0.6349851760 -0.6127125201
1008437500 0.7863445889 -0.4768287954 -0.0011821214 0.0003093597 -0.0011637789 0.0003650956 0.6473725707 -0.6107276478
1008750000 0.7767361992 -0.4676708678 -0.0007129696 0.0006708846 -0.0006291718 0.0006935754 0.6499608825 -0.6145521941
1009062500 0.7804780749 -0.4530501754 0.0000911407 0.0003422346 0.0000964099 0.0003046318 0.6550722342 -0.6243434192
1009375000 0.7939674441 -0.4518093883 0.0002712256 -0.0003014172 0.0002730304 -0.0003818376 0.6498602503 -0.6309381243
1009687500 0.8040387715 -0.4581769654 -0.0001715845 -0.0008855008 -0.0002285032 -0.0009469237 0.6446027825 -0.6314361071
1010000000 0.8048337709 -0.4658525671 -0.0007055247 -0.0010143355 -0.0007605396 -0.0009754223 0.6376238002 -0.6271460489
1010312500 0.8010125672 -0.4726274977 -0.0010355686 -0.0003890566 -0.0010207030 -0.0003672586 0.6418457071 -0.6161628924
1010625000 0.7962003937 -0.4786200256 -0.0006577256 -0.0003835962 -0.0006396022 -0.0003762557 0.6558392588 -0.6226554045
1010937500 0.7867099758 -0.4803364152 -0.0006827786 -0.0004256589 -0.0006971816 -0.0003796047 0.6542767319 -0.6328920860
1011250000 0.7719607569 -0.4736296287 -0.0003878264 -0.0005423549 -0.0003981117 -0.0005771779 0.6411523267 -0.6398149633
1011562500 0.7701524249 -0.4591419242 -0.0007503823 -0.0009771390 -0.0007942550 -0.0009618010 0.6347161735 -0.6304932768
1011875000 0.7838294614 -0.4423099013 -0.0011649521 -0.0008994191 -0.0012265352 -0.0008585905 0.6426073370 -0.6240644414
1012187500 0.8058136156 -0.4450910762 -0.0012489986 -0.0003847098 -0.0012074301 -0.0003484466 0.6480692955 -0.6272478589
1012500000 0.8124689210 -0.4601538615 -0.0011272367 -0.0005226814 -0.0011337410 -0.0005401932 0.6504549337 -0.6314838804
1012812500 0.8118125228 -0.4733076993 -0.0015196651 -0.0001787124 -0.0015046435 -0.0001192726 0.6492639946 -0.6375519246
1013125000 0.8065396201 -0.4822412124 -0.0010600023 0.0001589683 -0.0010182190 0.0001754478 0.6462310860 -0.6421013468
1013437500 0.8011206694 -0.4883397842 -0.0008104570 -0.0001000644 -0.0007848671 -0.0001280840 0.6382523989 -0.6447570649
1013750000 0.7886156845 -0.4962001842 -0.0008824609 -0.0002968965 -0.0009221023 -0.0003019609 0.6327285389 -0.6399441830
1014062500 0.7716170961 -0.4888219740 -0.0011970111 -0.0002783595 -0.0012272377 -0.0002511976 0.6271045355 -0.6324036321
1014375000 0.7626149056 -0.4735786436 -0.0014200433 -0.0000055077 -0.0014222998 0.0000165463 0.6349962283 -0.6212993613
1014687500 0.7779672128 -0.4538198158 -0.0013190946 0.0004817764 -0.0012530951 0.0005147204 0.6530003466 -0.6215589007
1015000000 0.7934401983 -0.4585078372 -0.0007451634 0.0004114127 -0.0007603208 0.0004070839 0.6567760597 -0.6374782746
1015312500 0.7971093305 -0.4652780850 -0.0007645154 0.0003851867 -0.0007186800 0.0003944741 0.6527647527 -0.6469974544
1015625000 0.8018873187 -0.4717069251 -0.0005259997 0.0003945437 -0.0005364624 0.0003657183 0.6458107751 -0.6502471074
1015937500 0.8022790912 -0.4792595093 -0.0006233162 0.0002046556 -0.0006518482 0.0002097294 0.6420800826 -0.6508586128
1016250000 0.7941331807 -0.4879269160 -0.0007307525 0.0006382232 -0.0007256324 0.0007134665 0.6365379992 -0.6534654356
1016562500 0.7856871936 -0.4911553687 0.0003506223 0.0012777829 0.0004518975 0.0011909248 0.6260627576 -0.6564158856
1016875000 0.7745700702 -0.4877344385 0.0018692583 -0.0003150678 0.0018305001 -0.0005246809 0.6134940494 -0.6435926515
1017187500 0.7679324541 -0.4753835169 0.0006694063 -0.0028336353 0.0004029249 -0.0028773784 0.6228360519 -0.6208171763
1017500000 0.7806373704 -0.4594157811 -0.0018833560 -0.0024886174 -0.0020141283 -0.0023563583 0.6477380611 -0.6261981306
1017812500 0.7955961081 -0.4643387341 -0.0027890248 -0.0011036701 -0.0027847064 -0.0009617305 0.6463333422 -0.6457806225
1018125000 0.7993119820 -0.4753455459 -0.0030944910 0.0000186688 -0.0030448550 0.0000904380 0.6360568379 -0.6480009168
1018437500 0.7963629675 -0.4824468528 -0.0030023398 0.0015477339 -0.0029155677 0.0016734075 0.6358328544 -0.6394810955
1018750000 0.7953107164 -0.4841001562 -0.0017737817 0.0029711167 -0.0015815082 0.0030271610 0.6427698662 -0.6439877923
1019062500 0.7933859878 -0.4906885696 0.0008652060 0.0032169516 0.0010375030 0.0030597618 0.6443440084 -0.6507369902
1019375000 0.7814189800 -0.4975384007 0.0024860516 0.0010184760 0.0024624483 0.0007674389 0.6320205130 -0.6572819789
1019687500 0.7656509483 -0.4922927566 0.0016576515 -0.0012621440 0.0014622332 -0.0013205027 0.6265427423 -0.6501954615
1020000000 0.7620874270 -0.4711562999 0.0003154234 -0.0015147150 0.0002195255 -0.0015220446 0.6277912109 -0.6496684662
1020312500 0.7784225026 -0.4607589426 -0.0004485600 -0.0015835877 -0.0005186484 -0.0015631320 0.6234309411 -0.6482873270
1020625000 0.7912102987 -0.4639665154 -0.0011184840 -0.0012918356 -0.0011701138 -0.0012739860 0.6222087455 -0.6394274010
1020937500 0.7978552469 -0.4714553374 -0.0019830234 -0.0010468341 -0.0020193685 -0.0009364152 0.6305012063 -0.6336204362
1021250000 0.8028871121 -0.4819964257 -0.0019714395 0.0033323142 -0.0018725732 0.0004111519 0.6439058455 -0.6360353695
1021562500 0.8025097266 -0.4931087549 -0.0011445122 0.0004834577 -0.0011007082 0.0004631405 0.6443684284 -0.6522369801
1021875000 0.7917981805 -0.5008136064 -0.0011432132 0.0000498547 -0.0011469978 0.0000323260 0.6352914513 -0.6568527946
1022187500 0.7841566377 -0.5005935016 -0.0017420159 0.0000939884 -0.0017825789 0.0001315798 0.6300316700 -0.6545685928
1022500000 0.7797583739 -0.5013783443 -0.0023403286 0.0009579479 -0.0023289406 0.0010864668 0.6294677702 -0.6521738606
1022812500 0.7635832688 -0.5008724467 -0.0017205787 0.0028397612 -0.0015446941 0.0029013416 0.6247960367 -0.6498275435
1023125000 0.7568388895 -0.4788404152 0.0011585776 0.0027782679 0.0013117264 0.0025518309 0.6266497533 -0.6419180468
1023437500 0.7774585978 -0.4657895959 0.0014070758 0.0002578723 0.0012805164 0.0001459558 0.6381533810 -0.6375605799
1023750000 0.7891052913 -0.4777013256 0.0001890396 0.0000896871 0.0001882615 0.0001123682 0.6462694814 -0.6510015491
1024062500 0.7854681709 -0.4875751773 0.0004234838 0.0002934936 0.0004330745 0.0002627654 0.6411533155 -0.6653742686
1024375000 0.7812222608 -0.4883057522 0.0007020858 -0.0002700804 0.0006582753 -0.0003623577 0.6233503546 -0.6655838274
1024687500 0.7817631723 -0.4840790156 -0.0000703097 -0.0011533856 -0.0001810199 -0.0011959531 0.6247182458 -0.6517899292
1025000000 0.7851996249 -0.4854053974 -0.0012560464 -0.0009384923 -0.0013566065 -0.0008353349 0.6326293853 -0.6531821295
1025312500 0.7836532288 -0.4930533766 -0.0019875347 0.0000720056 -0.0020266229 0.0001821859 0.6323082984 -0.6603680650
1025625000 0.7767347177 -0.4925818057 -0.0016130843 0.0015982027 -0.0015168068 0.0016431711 0.6253934733 -0.6628147545
1025937500 0.7724547795 -0.4915532574 0.0001788610 0.0018861705 0.0002767251 0.0017466307 0.6197810472 -0.6584857354
1026250000 0.7705465114 -0.4876163415 0.0003958822 0.0005375838 0.0003438669 0.0004425200 0.6257715051 -0.6571957202
1026562500 0.7743127126 -0.4780236120 0.0000033045 0.0005083933 -0.0000383288 0.0005017899 0.6206359020 -0.6645975987
1026875000 0.7860946943 -0.4814914986 0.0002039753 0.0003277620 0.0001752845 0.0002981944 0.6103924075 -0.6589995963
1027187500 0.7884450023 -0.4894597234 -0.0007308708 -0.0003436969 -0.0008592605 -0.0002500882 0.6129560557 -0.6474570969
1027500000 0.7825274526 -0.4948775664 -0.0019006326 0.0014023673 -0.0018098336 0.0016129089 0.6167915282 -0.6449044150
1027812500 0.7753584298 -0.4932652196 0.0002071982 0.0032545328 0.0004649727 0.0031514769 0.6217207762 -0.6363862625
1028125000 0.7797006094 -0.4913299751 0.0018788258 0.0018470473 0.0018756904 0.0016850572 0.6326094389 -0.6389570096
1028437500 0.7825829781 -0.4956648948 0.0022406145 0.0007327062 0.0022045354 0.0006362733 0.6386875045 -0.6479313755
1028750000 0.7744946689 -0.4989875881 0.0019853444 -0.0003727977 0.0018994067 -0.0004418389 0.6390149907 -0.6535627267
1029062500 0.7733876876 -0.4975171468 0.0013162850 -0.0008147145 0.0012562591 -0.0008589851 0.6392008772 -0.6571951526
1029375000 0.7642846675 -0.4965353643 0.0008903683 -0.0008775478 0.0008261685 -0.0009104063 0.6364578737 -0.6615024461
1029687500 0.7613759614 -0.4838633471 0.0007616661 -0.0010034178 0.0006947943 -0.0010223815 0.6313169395 -0.6667201203
1030000000 0.7699668223 -0.4752709070 0.0003139483 -0.0012535956 0.0002307932 -0.0012269441 0.6225938096 -0.6626697917
1030312500 0.7871852566 -0.4746124039 -0.0002847190 -0.0010611338 -0.0003286093 -0.0010210716 0.6311361176 -0.6539980241
1030625000 0.7894731462 -0.4886182096 -0.0003028348 -0.0006285807 -0.0003555555 -0.0006425665 0.6382693745 -0.6617624760
1030937500 0.7845681036 -0.4974402523 -0.0002076884 -0.0004533797 -0.0002120365 -0.0004134163 0.6359873304 -0.6724757205
1031250000 0.7743744884 -0.4974882682 0.0001543608 -0.0008402646 0.0001193314 -0.0008575848 0.6303439613 -0.6779199746
1031562500 0.7759830244 -0.4896091977 -0.0006299073 -0.0014312997 -0.0007215974 -0.0013682274 0.6217276911 -0.6785202937
1031875000 0.7787987205 -0.4912022986 -0.0016951233 -0.0012425340 -0.0017540020 -0.0011272845 0.6168268852 -0.6767612300
1032187500 0.7816967552 -0.4920720112 -0.0029439424 -0.0002314512 -0.0030029197 -0.0000501511 0.6067221960 -0.6741930273
1032500000 0.7811847937 -0.4976841210 -0.0032749770 0.0031714444 -0.0029925891 0.0033727660 0.5974591720 -0.6623981237
1032812500 0.7814560032 -0.5023066918 0.0012733743 0.0047944494 0.0015722607 0.0044850897 0.6173691199 -0.6458844594
1033125000 0.7762358300 -0.5052609944 0.0036875016 0.0016983503 0.0036538702 0.0013614213 0.6265480376 -0.6587494596
1033437500 0.7712177967 -0.5046854638 0.0030799110 -0.0008149317 0.0028618133 -0.0009281997 0.6229171245 -0.6636147227
1033750000 0.7634347202 -0.5020335162 0.0017778246 -0.0014354733 0.0016476292 -0.0014502009 0.6213092800 -0.6655506966
1034062500 0.7650238745 -0.4928629935 0.0012103368 -0.0016749060 0.0010955734 -0.0017083667 0.6159616083 -0.6635182857
1034375000 0.7656901232 -0.4899320688 0.0005940499 -0.0018650651 0.0004776387 -0.0018458740 0.6180128469 -0.6588094691
1034687500 0.7717379670 -0.4848742292 -0.0002114153 -0.0020246654 -0.0003570390 -0.0019852088 0.6230970266 -0.6607219064
1035000000 0.7757373545 -0.4879388293 -0.0011524428 -0.0010057300 -0.0011795264 -0.0008378963 0.6225408181 -0.6643413777
1035312500 0.7777864482 -0.4838467089 0.0000494855 0.0001241507 0.0001704124 0.0000809676 0.6252328069 -0.6597578193
1035625000 0.7854118059 -0.4856071926 0.0007430078 -0.0011515088 0.0007076946 -0.0012324467 0.6342542876 -0.6673819759
1035937500 0.7919833330 -0.4955127467 0.0001183389 -0.0018541463 0.0000481168 -0.0018691672 0.6265705030 -0.6802331429
1036250000 0.7909467752 -0.5051892224 -0.0007097984 -0.0021389634 -0.0007913229 -0.0021067175 0.6169491193 -0.6824422624
1036562500 0.7820024684 -0.5100833967 -0.0017154409 -0.0019067208 -0.0018468620 -0.0017984861 0.6104455947 -0.6762252648
1036875000 0.7797675829 -0.5057365246 -0.0024125532 -0.0010118895 -0.0024164259 -0.0008850617 0.6080399794 -0.6733918723
1037187500 0.7781893976 -0.5116173965 -0.0029867579 -0.0002268474 -0.0030567583 -0.0000644105 0.6072503160 -0.6687836213
1037500000 0.7669124237 -0.5135719605 -0.0033856614 0.0027481404 -0.0031038063 0.0030362483 0.6036310654 -0.6642499604
1037812500 0.7608280471 -0.5014436075 0.0007237034 0.0042745348 0.0010391766 0.0040724455 0.6117151679 -0.6574760517
1038125000 0.7710073840 -0.4957142182 0.0033123358 0.0019670287 0.0033382595 0.0017073250 0.6176911210 -0.6640142920
1038437500 0.7747474727 -0.5024651039 0.0037981963 -0.0007226169 0.0036854347 -0.0009523260 0.6116006034 -0.6635102490
1038750000 0.7698793668 -0.5083730425 0.0023108670 -0.0030383730 0.0020727392 -0.0031319881 0.6196057520 -0.6541076959
1039062500 0.7560557513 -0.5042296534 0.0003841598 -0.0032886332 0.0002344173 -0.0032156090 0.6307751559 -0.6618411959
1039375000 0.7623965528 -0.4853692085 -0.0007098850 -0.0031210523 -0.0008406521 -0.0030280905 0.6311846633 -0.6710590538
1039687500 0.7775594946 -0.4838689645 -0.0019868332 -0.0028382236 -0.0021089780 -0.0027173233 0.6249992231 -0.6788118342
1040000000 0.7822565120 -0.4962055454 -0.0030562585 -0.0010935058 -0.0029889252 -0.0008754171 0.6142213466 -0.6822467825
1040312500 0.7825435638 -0.4982282126 -0.0016720377 0.0008374332 -0.0014422220 0.0008536630 0.6157331181 -0.6712517949
1040625000 0.7869397447 -0.5005653211 0.0001248996 -0.0000883397 0.0001529149 -0.0002210824 0.6228403152 -0.6759513809
1040937500 0.7861430747 -0.5097860123 0.0001069812 -0.0014810811 0.0000197987 -0.0015398530 0.6163441552 -0.6795202122
1041250000 0.7798992276 -0.5188275118 -0.0009837456 -0.0026018803 -0.0011386184 -0.0026062972 0.6191766245 -0.6794363176
1041562500 0.7649436140 -0.5226024025 -0.0024828654 -0.0022263414 -0.0025315564 -0.0021165871 0.6153940114 -0.6906856374
1041875000 0.7559363388 -0.5050313010 -0.0034194927 -0.0016785190 -0.0034791971 -0.0015296477 0.6020772144 -0.6933268314
1042187500 0.7676187159 -0.4998148400 -0.0049818174 -0.0004549371 -0.0049618514 -0.0001925548 0.5894637156 -0.6884435488
1042500000 0.7732996582 -0.5050090887 -0.0052970893 0.0033666841 -0.0049012654 0.0036783295 0.5760493951 -0.6694473569
1042812500 0.7665938406 -0.5082303237 -0.0007752100 0.0055242870 -0.0003601125 0.0053245892 0.5904019833 -0.6452973847
1043125000 0.7622725641 -0.5010845166 0.0025588139 0.0030472814 0.0026212278 0.0026848093 0.6114194200 -0.6441192877
1043437500 0.7724080405 -0.4910036534 0.0023284499 -0.0000813329 0.0021786123 -0.0002325479 0.6239205302 -0.6489088354
1043750000 0.7831976907 -0.4999944061 0.0008054856 -0.0010971254 0.0006586511 -0.0010848026 0.6334169741 -0.6626211567
1044062500 0.7812844555 -0.5155940023 0.0000269488 -0.0008977019 -0.0000458787 -0.0008679907 0.6318999342 -0.6810968080
1044375000 0.7732337175 -0.5174661239 -0.0002195039 -0.0008130505 -0.0002528501 -0.0008315171 0.6238524807 -0.6870938825
1044687500 0.7669567137 -0.5140685174 -0.0002915911 -0.0009579490 -0.0003534583 -0.0009923930 0.6109107036 -0.6905392640
1045000000 0.7674309362 -0.5106565043 -0.0009914144 -0.0013647126 -0.0011103364 -0.0013170927 0.6016627347 -0.6823731903
1045312500 0.7663582010 -0.5137004329 -0.0016411757 -0.0003438112 -0.0015901810 -0.0002356501 0.6025516820 -0.6706308402
1045625000 0.7621259546 -0.5161032381 -0.0004988325 -0.0000063843 -0.0004320203 -0.0000450896 0.6183744629 -0.6696012111
1045937500 0.7531440595 -0.5036212359 -0.0004726388 -0.0009424142 -0.0005038588 -0.0009476579 0.6182646697 -0.6827535018
1046250000 0.7687882924 -0.4960835904 -0.0011001379 -0.0013516530 -0.0011892257 -0.0013158504 0.6143964769 -0.6888133117
1046562500 0.7730909132 -0.5066588298 -0.0018550199 -0.0011506230 -0.0018838845 -0.0010630045 0.6098528591 -0.6926307868
1046875000 0.7695367780 -0.5099048201 -0.0022005381 -0.0008517783 -0.0022071857 -0.0007963317 0.6017177931 -0.6986616132
1047187500 0.7656237876 -0.5097591882 -0.0027454554 -0.0005534344 -0.0027535613 -0.0005014036 0.5843712797 -0.6987863312
1047500000 0.7626507097 -0.5031132485 -0.0035495346 0.0004689644 -0.0034879122 0.0006276581 0.5629363187 -0.6820562716
1047812500 0.7704296748 -0.4943707840 -0.0029768699 0.0023084390 -0.0027605583 0.0023977989 0.5683521702 -0.6407860771
1048125000 0.7810105181 -0.4996694696 -0.0012841619 0.0026253897 -0.0011404447 0.0025258141 0.6088463983 -0.6329947451
1048437500 0.7861767954 -0.5072173240 -0.0001793751 0.0024039626 -0.0000728922 0.0023051204 0.6296273360 -0.6508453460
1048750000 0.7836111242 -0.5181903006 0.0005041688 0.0014473999 0.0005267434 0.0013377285 0.6330094718 -0.6715208114
1049062500 0.7792997500 -0.5266610161 0.0007461564 0.0008617881 0.0007440461 0.0007727960 0.6235402493 -0.6868770683
1049375000 0.7667687560 -0.5310750571 0.0010224070 -0.0001324836 0.0009784722 -0.0002319397 0.6067240192 -0.6907288761
1049687500 0.7545111266 -0.5310494768 0.0003044612 -0.0012329784 0.0002240300 -0.0012634787 0.5963220531 -0.6814880560
1050000000 0.7418334533 -0.5201300977 -0.0007918187 -0.0015110152 -0.0008796010 -0.0015171821 0.6013203220 -0.6679039374
1050312500 0.7466786728 -0.5019612266 -0.0018067403 -0.0011468152 -0.0018755023 -0.0010447828 0.6136300537 -0.6654998274
1050625000 0.7536810758 -0.4998370729 -0.0023942601 -0.0003638725 -0.0023744940 -0.0002759771 0.6184313882 -0.6748861766
1050937500 0.7651192597 -0.4946764735 -0.0021065267 0.0007769481 -0.0020180139 0.0008120638 0.6224581885 -0.6861513576
1051250000 0.7675949107 -0.4976504699 -0.0014760541 0.0010024079 -0.0013891433 0.0010083941 0.6118937313 -0.6957428667
1051562500 0.7714098891 -0.4996127896 -0.0008657066 0.0008805398 -0.0008274137 0.0007806859 0.6028090307 -0.6976003216
1051875000 0.7777700978 -0.5019462217 -0.0006492266 0.0002985352 -0.0006837939 0.0002599828 0.5909585390 -0.7006483574
1052187500 0.7836084731 -0.5074613909 -0.0008793567 -0.0003295055 -0.0009237556 -0.0003554900 0.5822321914 -0.6941889690
1052500000 0.7791412655 -0.5174359396 -0.0015760745 -0.0008081334 -0.0016271063 -0.0007880797 0.5668430862 -0.6816699744
1052812500 0.7745499965 -0.5191328842 -0.0030703461 -0.0007258706 -0.0031629297 -0.0006118830 0.5725342716 -0.6553921661
1053125000 0.7745479125 -0.5180874455 -0.0042392085 0.0015458281 -0.0041182802 0.0017400516 0.5979953213 -0.6455640692
1053437500 0.7764036253 -0.5222846738 -0.0026134356 0.0032106997 -0.0024023407 0.0031996092 0.6107910918 -0.6618477534
1053750000 0.7683859552 -0.5294518194 -0.0010225862 0.0038804978 -0.0007751741 0.0037775814 0.6045453923 -0.6640479838
1054062500 0.7602850090 -0.5274167787 0.0011578713 0.0027322988 0.0012049975 0.0025020596 0.6148091185 -0.6645590779
1054375000 0.7560350671 -0.5232539795 0.0011558270 0.0009343647 0.0010735502 0.0007885879 0.6160247845 -0.6733231104
1054687500 0.7564793545 -0.5185481463 0.0003180516 0.0001411392 0.0002164233 0.0001072868 0.6167143085 -0.6798202710
1055000000 0.7575640577 -0.5172081548 -0.0002495327 0.0000642029 -0.0002575935 0.0000769112 0.6110303656 -0.6828430869
1055312500 0.7534897250 -0.5117031432 -0.0005461947 -0.0001047136 -0.0005734391 -0.0001216540 0.6059731869 -0.6806942482
1055625000 0.7559167779 -0.5080086982 -0.0013729054 -0.0001474222 -0.0014008122 -0.0000943814 0.6097228718 -0.6832288586
1055937500 0.7613790864 -0.5070605125 -0.0019023541 0.0007936011 -0.0018703087 0.0008799427 0.6045126586 -0.6892946288
1056250000 0.7632666943 -0.5029600854 -0.0012921986 0.0018557076 -0.0011703648 0.0018725595 0.5948952581 -0.6810233045
1056562500 0.7697389970 -0.5023684988 -0.0001150936 0.0017051101 -0.0000433581 0.0016111337 0.6023919407 -0.6738553151
1056875000 0.7778867736 -0.5092358276 0.0001240227 0.0010388318 0.0000949972 0.0009632130 0.6069803686 -0.6826658786
1057187500 0.7802369414 -0.5175962846 0.0003705610 0.0008771578 0.0004116820 0.0008416125 0.6012467973 -0.6897223112
1057500000 0.7708817393 -0.5228259940 0.0011451468 -0.0001932070 0.0011257823 -0.0003013201 0.5872644004 -0.6903512177
1057812500 0.7716083698 -0.5222498444 0.0004389546 -0.0025966258 0.0002143712 -0.0027278207 0.5748893373 -0.6720894197
1058125000 0.7670703734 -0.5266062775 -0.0032784776 -0.0030180808 -0.0034618981 -0.0027941737 0.5917720183 -0.6542928522
1058437500 0.7595840325 -0.5257377973 -0.0050424409 -0.0001574145 -0.0049261107 0.0000754277 0.6051829618 -0.6573108576
1058750000 0.7558516882 -0.5211146777 -0.0043251370 0.0021104272 -0.0041362932 0.0022021098 0.6075795897 -0.6634462868
1059062500 0.7603316496 -0.5093149435 -0.0033456394 0.0031519586 -0.0031783228 0.0031707349 0.6159606283 -0.6613713629
1059375000 0.7712569850 -0.5132093245 -0.0020172383 0.0040771715 -0.0018346999 0.0040241818 0.6235433298 -0.6711686432
1059687500 0.7707790476 -0.5209928695 -0.0003477333 0.0039497634 -0.0002393291 0.0038377517 0.6213759509 -0.6808872598
1060000000 0.7687983873 -0.5240618574 0.0007481019 0.0030752001 0.0007814783 0.0028992167 0.6164498180 -0.6871245330
1060312500 0.7595049623 -0.5251579696 0.0010511756 0.0018378903 0.0010371983 0.0016995079 0.6094270454 -0.6848434084
1060625000 0.7568449805 -0.5183162196 0.0006208773 0.0010588351 0.0005655944 0.0009662178 0.6131589305 -0.6820943075
1060937500 0.7622522278 -0.5120603803 0.0002086974 0.0007178714 0.0001164670 0.0006774584 0.6148555334 -0.6898698042
1061250000 0.7706044438 -0.5153877718 -0.0003725714 0.0006590343 -0.0004181967 0.0006342961 0.6097467728 -0.6941464922
1061562500 0.7722213354 -0.5235672639 -0.0008682580 0.0010361771 -0.0008862854 0.0010728369 0.6064676088 -0.6960169576
1061875000 0.7700083228 -0.5296771890 -0.0007557889 0.0020356297 -0.0006882668 0.0020344028 0.6003575603 -0.6974163560
1062187500 0.7615360719 -0.5343441934 0.0005950566 0.0024297845 0.0007207123 0.0023520484 0.5962910501 -0.6999487375
1062500000 0.7550425236 -0.5309690527 0.0021801715 0.0013826215 0.0022371390 0.0011506086 0.5837489480 -0.7008481145
1062812500 0.7505662342 -0.5251206097 0.0024051913 -0.0012539232 0.0022534908 -0.0014948566 0.5688706005 -0.6832033145
1063125000 0.7522081755 -0.5190205305 0.0000238536 -0.0035394001 -0.0002968431 -0.0035423691 0.5838796082 -0.6592428293
1063437500 0.7535502264 -0.5151657817 -0.0031616878 -0.0028559916 -0.0033084271 -0.0026258648 0.6032439264 -0.6639396426
1063750000 0.7602434941 -0.5077787614 -0.0049735641 -0.0010889916 -0.0049899868 -0.0008188807 0.6058790662 -0.6695462925
1064062500 0.7717231398 -0.5113585968 -0.0056094135 0.0018552334 -0.0054288824 0.0020651845 0.6089879828 -0.6720342762
1064375000 0.7744780509 -0.5212096916 -0.0041188590 0.0040962658 -0.0038511904 0.0041325521 0.6155586848 -0.6748277040
1064687500 0.7708438298 -0.5309612137 -0.0023054975 0.0047710735 -0.0020602800 0.0046815811 0.6183972420 -0.6839485118
1065000000 0.7608443702 -0.5333507324 -0.0011819853 0.0050124681 -0.0010198187 0.0049576631 0.6089548133 -0.6914729023
1065312500 0.7525629664 -0.5243583695 0.0011456752 0.0052668350 0.0013422432 0.0050632970 0.6078580855 -0.6871410723
1065625000 0.7563079167 -0.5147482609 0.0028855264 0.0026033937 0.0028368725 0.0022961717 0.6034304801 -0.6853016013
1065937500 0.7730361150 -0.5143521778 0.0013360539 0.0005219197 0.0011703844 0.0004413102 0.6098828466 -0.6843944745
1066250000 0.7749492299 -0.5277635029 -0.0001446595 0.0007953548 -0.0002178029 0.0008199760 0.6155991086 -0.6898594630
1066562500 0.7700691612 -0.5338933899 -0.0004611438 0.0016234044 -0.0004156012 0.0016175155 0.6135529718 -0.6987999010
1066875000 0.7605899965 -0.5366723777 -0.0003046150 0.0020846433 -0.0002701578 0.0020313496 0.6056517504 -0.7058154204
1067187500 0.7540741223 -0.5365049570 0.0002085316 0.0027164945 0.0002727608 0.0027003853 0.5930011775 -0.7085917895
1067500000 0.7466956911 -0.5365768399 0.0015527921 0.0027937853 0.0015960850 0.0026698779 0.5835509504 -0.7050183537
1067812500 0.7350734444 -0.5246093952 0.0033912119 0.0015473379 0.0034293298 0.0012746223 0.5663296744 -0.6906979079
1068125000 0.7429994754 -0.5026194351 0.0030437187 -0.0024715476 0.0027066794 -0.0026884214 0.5691076557 -0.6612497725
1068437500 0.7620794427 -0.5014342262 -0.0010452166 -0.0032653361 -0.0013100983 -0.0030765253 0.6014341471 -0.6537220023
1068750000 0.7754048924 -0.5106068034 -0.0029768443 -0.0011903491 -0.0029623186 -0.0010217081 0.6124540602 -0.6675804641
1069062500 0.7771764144 -0.5226087754 -0.0029935719 0.0002264042 -0.0029141689 0.0002851100 0.6212275413 -0.6762817092
1069375000 0.7736686227 -0.5313720154 -0.0031441329 0.0009582035 -0.0030871048 0.0010286270 0.6167360700 -0.6884198515
1069687500 0.7672417442 -0.5397113464 -0.0032040593 0.0019677520 -0.0031147522 0.0020169814 0.6096073575 -0.6938258453
1070000000 0.7555896972 -0.5392491791 -0.0030548049 0.0028325617 -0.0029473830 0.0028798831 0.6063140488 -0.6918814405
1070312500 0.7463817749 -0.5262475449 -0.0026540680 0.0039975583 -0.0024775114 0.0039964267 0.6080642396 -0.6938610707
1070625000 0.7556977566 -0.5111519212 -0.0014425945 0.0048260209 -0.0012958577 0.0046655620 0.5993564725 -0.6960420197
1070937500 0.7710557035 -0.5170615820 -0.0002906017 0.0049404750 -0.0002357138 0.0047884331 0.5984918062 -0.6875861729
1071250000 0.7753213360 -0.5271941513 0.0007337488 0.0048152882 0.0008142559 0.0047096093 0.6080276850 -0.6840932046
1071562500 0.7746059173 -0.5346617284 0.0017613280 0.0042574500 0.0018269392 0.0040667040 0.6134553575 -0.6929879870
1071875000 0.7677480579 -0.5430865578 0.0021648153 0.0033998205 0.0021549956 0.0032240648 0.6111969006 -0.7012990516
1072187500 0.7587143190 -0.5484646521 0.0023378649 0.0029796095 0.0023106930 0.0028542907 0.6039078170 -0.7073191063
1072500000 0.7439747850 -0.5499674158 0.0029152413 0.0027489598 0.0029143516 0.0026033117 0.5953014675 -0.7093278750
1072812500 0.7273193363 -0.5339148092 0.0039557788 0.0016614476 0.0038925330 0.0014299999 0.5851984943 -0.7066140211
1073125000 0.7333098671 -0.5064911412 0.0035897649 -0.0006794743 0.0033606773 -0.0008303557 0.5702904745 -0.6908806881
1073437500 0.7624887316 -0.5025991383 0.0019190386 -0.0016097089 0.0016936300 -0.0016099805 0.5862846854 -0.6778103910
1073750000 0.7715999302 -0.5160421053 0.0003283578 -0.0017086790 0.0001687048 -0.0016145719 0.5899730993 -0.6814179132
1074062500 0.7713852504 -0.5257724056 -0.0008166370 -0.0010517763 -0.0008703883 -0.0009575090 0.5925647606 -0.6737756373
1074375000 0.7698955384 -0.5343169371 -0.0016959190 -0.0003387408 -0.0017024145 -0.0002837817 0.6067155769 -0.6704801575
1074687500 0.7647461136 -0.5384327498 -0.0021538074 0.0008805095 -0.0021191381 0.0009141900 0.6171691438 -0.6835100412
1075000000 0.7577103169 -0.5441563715 -0.0019526878 0.0019597590 -0.0018631880 0.0019921680 0.6126180523 -0.6949084416
1075312500 0.7420798200 -0.5401488310 -0.0014569496 0.0029978820 -0.0013347771 0.0030037991 0.6083779908 -0.6962229064
1075625000 0.7375989893 -0.5168639572 -0.0001352063 0.0033363489 -0.0005707199 0.0032376329 0.6047592398 -0.6951252014
1075937500 0.7597584973 -0.5073336757 0.0006239365 0.0027583635 0.0006362807 0.0026870106 0.6061590029 -0.6946600785
1076250000 0.7725515509 -0.5194214121 0.0005178872 0.0024453348 0.0005255547 0.0023564516 0.6043529767 -0.6976760117
1076562500 0.7741290904 -0.5291972776 0.0005667496 0.0025417314 0.0005721036 0.0024504086 0.6043119761 -0.6953144642
1076875000 0.7739639033 -0.5394577262 0.0008846718 0.0027790581 0.0008783006 0.0026844080 0.6093659670 -0.6991744725
1077187500 0.7666044183 -0.5484683699 0.0013847841 0.0028845009 0.0014019822 0.0028022690 0.6074733120 -0.7071570367
1077500000 0.7525943102 -0.5537458520 0.0023122035 0.0027815115 0.0023464919 0.0026357762 0.5975082615 -0.7119566967
1077812500 0.7345502209 -0.5441118227 0.0032047833 0.0016778972 0.0031599747 0.0014638641 0.5864676675 -0.7085328456
1078125000 0.7370390564 -0.5139871292 0.0027146183 0.0001979679 0.0025769135 0.0000490636 0.5790760954 -0.6972664287
1078437500 0.7616428380 -0.5129719073 0.0017939898 -0.0002377637 0.0016367013 -0.0002675022 0.5893548450 -0.6803638296
1078750000 0.7684661184 -0.5252562580 0.0011285713 -0.0001137223 0.0010347311 -0.0001078331 0.6067220535 -0.6859642880
1079062500 0.7666170746 -0.5335834247 0.0009179168 0.0000700546 0.0008571308 0.0000643534 0.6058613562 -0.6981757763
1079375000 0.7627418665 -0.5372875237 0.0008564914 0.0000935825 0.0008058560 0.0000827666 0.6010443322 -0.6993401894
1079687500 0.7612160553 -0.5413180477 0.0007014502 -0.0002334747 0.0005891621 -0.0002479007 0.5965979667 -0.6986027596
1080000000 0.7585366336 -0.5424277098 -0.0001271044 -0.0003646519 -0.0002085401 -0.0003213587 0.5992509568 -0.6904418745
1080312500 0.7472991837 -0.5471810763 -0.0007527180 0.0005112660 -0.0007186293 0.0005545742 0.6083677720 -0.6971535782
1080625000 0.7391252730 -0.5371234918 -0.0002511064 0.0012363178 -0.0002191749 0.0011985428 0.6115960175 -0.7052862955
1080937500 0.7428110780 -0.5206038770 0.0000659943 0.0011550445 0.0000502467 0.0011075745 0.6035814047 -0.7116217379
1081250000 0.7568451048 -0.5164610031 -0.0000496488 0.0011377721 -0.0000814348 0.0011360675 0.6006338180 -0.7117488342
1081562500 0.7652923523 -0.5225744542 -0.0000184449 0.0015433477 -0.0000147904 0.0015463338 0.5952411004 -0.7136319762
1081875000 0.7726772053 -0.5318893245 0.0003918137 0.0014972161 0.0003978369 0.0014332545 0.5901546229 -0.7170992653
1082187500 0.7699235485 -0.5409030362 0.0000257439 0.0013580422 -0.0000166205 0.0013411617 0.5813045912 -0.7133498925
1082500000 0.7594302509 -0.5509290778 -0.0000630004 0.0025559730 -0.0000156728 0.0025524027 0.5750933064 -0.7036490588
1082812500 0.7464486156 -0.5537411600 0.0016424782 0.0030091964 0.0016605400 0.0028503706 0.5818528360 -0.7011114917
1083125000 0.7319187589 -0.5343548579 0.0027660782 0.0016859017 0.0026820788 0.0014875821 0.5784978237 -0.6981488407
1083437500 0.7446581364 -0.5153280460 0.0023269589 0.0001488318 0.0021706790 0.0000593311 0.5781640723 -0.6857378621
1083750000 0.7597114350 -0.5200508151 0.0011559816 0.0001451768 0.0011044682 0.0001920629 0.5909991481 -0.6833258487
1084062500 0.7687048061 -0.5257876023 0.0011250983 0.0007639508 0.0011395924 0.0007623533 0.5999832870 -0.6875137739
1084375000 0.7685233672 -0.5351497764 0.0017284937 0.0010442414 0.0017629238 0.0009607370 0.6017136430 -0.6929051209
1084687500 0.7663383844 -0.5449309257 0.0025699571 0.0002058306 0.0025173840 0.0000856620 0.6010021140 -0.6976091169
1085000000 0.7629184668 -0.5472317637 0.0023310737 -0.0011635044 0.0021683317 -0.0012118312 0.6001203668 -0.6985192088
1085312500 0.7561519495 -0.5520984665 0.0011899328 -0.0018666074 0.0010351692 -0.0018355549 0.5977986567 -0.6998609100
1085625000 0.7457331998 -0.5517522566 -0.0000206659 -0.0018833737 -0.0001253435 -0.0018089029 0.6000627593 -0.6971937814
1085937500 0.7355106739 -0.5414951917 -0.0010584905 -0.0012235648 -0.0010861183 -0.0011514628 0.6010707932 -0.6998489245
1086250000 0.7412469199 -0.5280567825 -0.0014434934 -0.0002804749 -0.0014459020 -0.0001908223 0.6063028438 -0.7021964630
1086562500 0.7522783683 -0.5230550749 -0.0012650804 0.0007153320 -0.0011843753 0.0007508522 0.6071553531 -0.7099631932
1086875000 0.7635233569 -0.5296412890 -0.0006076355 0.0011097713 -0.0005676684 0.0010650816 0.6050688970 -0.7165532768
1087187500 0.7632167366 -0.5394764524 -0.0001827292 0.0010664796 -0.0001867873 0.0010037000 0.5973341580 -0.7209924796
1087500000 0.7571474011 -0.5458406982 -0.0000750818 0.0008176399 -0.0000889878 0.0007689614 0.5909856268 -0.7235373359
1087812500 0.7498941429 -0.5457088129 -0.0003215518 0.0008041754 -0.0003484663 0.0007900952 0.5828809626 -0.7220402765
1088125000 0.7412095491 -0.5417508708 -0.0003828033 0.0014055104 -0.0003091444 0.0013854932 0.5762271027 -0.7183166578
1088437500 0.7406856634 -0.5265074934 0.0002462662 0.0018668558 0.0002916901 0.0017822668 0.5704078666 -0.7068541118
1088750000 0.7548111962 -0.5217183555 0.0014152394 0.0014179217 0.0014184328 0.0012972235 0.5785341872 -0.6942191354
1089062500 0.7645451911 -0.5283701667 0.0012089508 0.0001412938 0.0011018971 0.0001003970 0.5890108502 -0.6968928308
1089375000 0.7675804545 -0.5358363140 0.0003829008 0.0000861060 0.0003439788 0.0001140227 0.5941165763 -0.7034611944
1089687500 0.7645808143 -0.5394994739 0.0003040508 0.0005418717 0.0003074350 0.0005038732 0.5898460746 -0.7105222626
1090000000 0.7634286040 -0.5435660256 0.0004397961 0.0003565813 0.0004159431 0.0003108483 0.5817524314 -0.7125622176
1090312500 0.7613908161 -0.5486076029 -0.0000281597 0.0004455008 -0.0000417800 0.0004450751 0.5712282472 -0.7063729434
1090625000 0.7587890203 -0.5506582419 0.0006072906 0.0011351310 0.0006165273 0.0010542303 0.5764816561 -0.6914884579
1090937500 0.7525530362 -0.5546428936 0.0012980225 0.0001659557 0.0012208105 0.0001160899 0.5862436952 -0.6915174707
1091250000 0.7451591058 -0.5550686515 0.0005872577 -0.0006799513 0.0004996966 -0.0006838823 0.5913311070 -0.6932440708
1091562500 0.7390546033 -0.5511232356 -0.0003291252 -0.0004498161 -0.0003775938 -0.0004199902 0.5939437685 -0.6941574376
1091875000 0.7311652360 -0.5412571691 -0.0005683402 0.0002455295 -0.0005596807 0.0002219298 0.6003949342 -0.6958037462
1092187500 0.7398300483 -0.5239294981 -0.0003257245 0.0005893067 -0.0002681387 0.0005720293 0.6031125255 -0.7048565317
1092500000 0.7570188928 -0.5264664758 -0.0000312621 0.0005907515 -0.0000770225 0.0005889320 0.5965987000 -0.7114952458
1092812500 0.7609919083 -0.5383327866 0.0001515162 0.0005777273 0.0001829656 0.0005835265 0.5913236035 -0.7103186466
1093125000 0.7564440331 -0.5473325346 0.0001903979 0.0002394181 0.0001983230 0.0001908279 0.5934797006 -0.7144918101
1093437500 0.7482856573 -0.5494115112 -0.0000419010 0.0002184632 -0.0000617100 0.0001976158 0.5891563195 -0.7191427031
1093750000 0.7399503168 -0.5408273525 -0.0001065905 0.0002301819 -0.0001067540 0.0002214665 0.5812314942 -0.7179786528
1094062500 0.7385756915 -0.5330695500 -0.0001468247 0.0002114774 -0.0001834829 0.0001437651 0.5766470912 -0.7132123556
1094375000 0.7459950900 -0.5239912446 -0.0004494860 0.0002063270 -0.0004840895 0.0002300853 0.5725123254 -0.7068060105
1094687500 0.7624029841 -0.5215893580 -0.0003607083 0.0003346928 -0.0003886786 0.0003340900 0.5783349917 -0.6978248345
1095000000 0.7692386684 -0.5321117262 -0.0006980206 0.0005178262 -0.0006524185 0.0005242016 0.5901322260 -0.6928463461
1095312500 0.7685272713 -0.5441163875 -0.0002972860 0.0008668467 -0.0002608040 0.0008420042 0.5976252357 -0.7055003556
1095625000 0.7673264873 -0.5490651547 -0.0001062912 0.0005210052 -0.0000916861 0.0004931719 0.5968877107 -0.7161033914
1095937500 0.7598343073 -0.5545862003 -0.0003646434 0.0004622761 -0.0003847818 0.0004251400 0.5873047342 -0.7195179741
1096250000 0.7565677508 -0.5525142013 -0.0003854526 0.0006576789 -0.0004001535 0.0006256694 0.5795271887 -0.7205354025
1096562500 0.7539182596 -0.5532777332 -0.0001443669 0.0007683779 -0.0001867099 0.0007512552 0.5741112325 -0.7149106178
1096875000 0.7495860368 -0.5560901210 -0.0000164168 0.0002469781 -0.0000684425 0.0002222604 0.5707815520 -0.7055085193
1097187500 0.7476745191 -0.5540413477 -0.0006106990 0.0000960229 -0.0006470339 0.0001449929 0.5816873129 -0.7016036158
1097500000 0.7412400852 -0.5529260710 -0.0010399488 0.0005330796 -0.0010126641 0.0005280952 0.5808624798 -0.7057031327
1097812500 0.7386867157 -0.5484247839 -0.0008607465 0.0010238918 -0.0008203322 0.0009801250 0.5809953349 -0.7066889691
1098125000 0.7446010130 -0.5423180907 -0.0005776993 0.0011652262 -0.0005700034 0.0011414401 0.5794385034 -0.7087475460
1098437500 0.7461886484 -0.5456966326 -0.0004434892 0.0012272432 -0.0004593982 0.0011913258 0.5741764059 -0.7052365123
1098750000 0.7437587450 -0.5459160004 -0.0002525506 0.0012241858 -0.0002400192 0.0011795522 0.5773888131 -0.6968776095
1099062500 0.7393266667 -0.5412843508 0.0000492324 0.0011267528 0.0000305614 0.0010966573 0.5878545020 -0.6966196471
1099375000 0.7466627029 -0.5389194931 0.0000510954 0.0007496756 0.0000528519 0.0007220293 0.5913645116 -0.7079244839
1099687500 0.7463987501 -0.5407248216 -0.0001538119 0.0007224242 -0.0001236512 0.0006928337 0.5852543100 -0.7152591140
1100000000 0.7496475709 -0.5354357793 -0.0000980924 0.0006274671 -0.0001408027 0.0005602602 0.5797687000 -0.7106086313
1100312500 0.7521487818 -0.5357616168 -0.0003149238 0.0005378132 -0.0003331750 0.0005162209 0.5751727494 -0.7085385368
1100625000 0.7591215558 -0.5360016469 -0.0005872610 0.0003773336 -0.0006635685 0.0003577704 0.5741750249 -0.7018518240
1100937500 0.7612537516 -0.5443827750 -0.0010724114 0.0007532279 -0.0011061551 0.0008269730 0.5796575457 -0.6977465484
1101250000 0.7594643014 -0.5481536689 -0.0009675346 0.0014876783 -0.0009112076 0.0015527354 0.5849795324 -0.6974221999
1101562500 0.7561403752 -0.5499742277 -0.0003335650 0.0017932892 -0.0002774375 0.0017330888 0.5907453973 -0.7005470973
1101875000 0.7541384721 -0.5524952993 0.0002444918 0.0017144505 0.0003156175 0.0016061231 0.5887040213 -0.7082952103
1102187500 0.7531876221 -0.5533295951 0.0006955586 0.0011645263 0.0006937943 0.0010215609 0.5859043907 -0.7087986791
1102500000 0.7494616537 -0.5579419179 0.0006383713 0.0005028827 0.0005741732 0.0003862887 0.5841960252 -0.7125103976
1102812500 0.7436031883 -0.5568741511 0.0004435513 -0.0000464832 0.0003846563 -0.0001185373 0.5784913276 -0.7101136736
1103125000 0.7419066438 -0.5530552569 -0.0003424639 -0.0007275789 -0.0004810494 -0.0007086955 0.5793162201 -0.7050482467
1103437500 0.7381488159 -0.5539373401 -0.0015963473 -0.0004680093 -0.0016348900 -0.0003772285 0.5829623336 -0.7080580415
1103750000 0.7372868277 -0.5463832701 -0.0023116030 0.0006039796 -0.0022474002 0.0006746023 0.5817006390 -0.7114382690
1104062500 0.7435164424 -0.5456617374 -0.0022298030 0.0018990867 -0.0021020948 0.0019289833 0.5734846970 -0.7129268423
1104375000 0.7482706585 -0.5434060175 -0.0012010204 0.0028604222 -0.0010756901 0.0028077149 0.5721763833 -0.7053585536
1104687500 0.7471431419 -0.5475433583 0.0001519026 0.0027306401 0.0001752350 0.0026145399 0.5736005865 -0.6994021187
1105000000 0.7423792182 -0.5484373057 0.0008333734 0.0020007228 0.0008202404 0.0018662388 0.5788403439 -0.6944638642
1105312500 0.7389454012 -0.5434986830 0.0009882610 0.0009626630 0.0009357488 0.0008463120 0.5829044948 -0.6979274013
1105625000 0.7409921458 -0.5383186718 0.0004241375 0.0003483490 0.0003750074 0.0003110841 0.5843399534 -0.7019607712
1105937500 0.7450047301 -0.5363364642 -0.0001417652 0.0001342427 -0.0001833613 0.0001217163 0.5818219408 -0.7034168922
1106250000 0.7535195840 -0.5322696295 -0.0007070770 0.0002534570 -0.0007268647 0.0002456044 0.5805246102 -0.6980255525
1106562500 0.7602429455 -0.5397700908 -0.0010093070 0.0006081332 -0.0010241443 0.0005790893 0.5883757241 -0.6960728750
1106875000 0.7620128946 -0.5468196703 -0.0010551597 0.0008586373 -0.0010904522 0.0008461176 0.5935263133 -0.7019770148
1107187500 0.7610984190 -0.5516506723 -0.0012940154 0.0011007194 -0.0013142295 0.0011288814 0.5928426260 -0.7062451399
1107500000 0.7599564663 -0.5570435333 -0.0011749782 0.0014109137 -0.0011767514 0.0014132454 0.5907114520 -0.7082086195
1107812500 0.7545742073 -0.5617854982 -0.0014193639 0.0015658496 -0.0013870275 0.0015592057 0.5871578071 -0.7128243454
1108125000 0.7477198994 -0.5656056331 -0.0016712643 0.0023188753 -0.0016052536 0.0022609310 0.5842086083 -0.7115542028
1108437500 0.7416229600 -0.5612181475 -0.0011581889 0.0033927526 -0.0010533117 0.0033364106 0.5835997225 -0.7071025007
1108750000 0.7372782434 -0.5593393632 0.0006861370 0.0039150992 0.0007375588 0.0037464404 0.5850014059 -0.7057000792
1109062500 0.7382042259 -0.5534526986 0.0021189296 0.0025282144 0.0020652159 0.0023335828 0.5861583869 -0.7068620757
1109375000 0.7338002354 -0.5542886372 0.0018254474 0.0007532023 0.0016861887 0.0006636520 0.5865082397 -0.7065704325
1109687500 0.7344606192 -0.5496699217 0.0009403209 0.0002537656 0.0008165387 0.0002381770 0.5887454978 -0.7117594429
1110000000 0.7393397836 -0.5459669521 0.0002424525 -0.0000305843 0.0002091097 -0.0000397886 0.5846198214 -0.7162610852
1110312500 0.7410030349 -0.5464102545 -0.0006524876 0.0001682878 -0.0007144935 0.0001901973 0.5842999588 -0.7149638182
1110625000 0.7408253410 -0.5431909484 -0.0011094710 0.0010482545 -0.0010809249 0.0010824539 0.5772943975 -0.7126503772
1110937500 0.7429680890 -0.5409075519 -0.0004525091 0.0017189000 -0.0004297891 0.0016470112 0.5754046343 -0.7059335963
1111250000 0.7453686105 -0.5416094118 -0.0001707425 0.0014455608 -0.0002303048 0.0014308589 0.5822266358 -0.6975679433
1111562500 0.7477603820 -0.5409519670 0.0001160330 0.0014549602 0.0001444744 0.0014043896 0.5932067303 -0.7033926561
1111875000 0.7507124193 -0.5445747318 0.0002110622 0.0009853590 0.0001911382 0.0009389371 0.5902865226 -0.7126369854
1112187500 0.7513669463 -0.5471809836 -0.0002120709 0.0006165490 -0.0002277587 0.0005554467 0.5870089112 -0.7123259615
1112500000 0.7485893912 -0.5483634422 -0.0008187585 0.0008974890 -0.0008295046 0.0008853917 0.5842884863 -0.7130524155
1112812500 0.7519625780 -0.5435090634 -0.0007903996 0.0015187351 -0.0007927576 0.0014567215 0.5861257871 -0.7118595436
1113125000 0.7567935661 -0.5462682308 -0.0001762177 0.0017874588 -0.0001740825 0.0016895620 0.5849299032 -0.7093564232
1113437500 0.7596313238 -0.5515347531 0.0001617990 0.0010777079 0.0001339218 0.0010185684 0.5886800597 -0.7091718650
1113750000 0.7578059650 -0.5607941498 -0.0002562399 0.0005620555 -0.0003058470 0.0005100430 0.5928049270 -0.7141092824
1114062500 0.7533868587 -0.5641895172 -0.0010792398 0.0004596997 -0.0010944795 0.0004665720 0.5894047109 -0.7204185075
1114375000 0.7490124668 -0.5679323963 -0.0017161710 0.0010907134 -0.0017261710 0.0010942103 0.5848765815 -0.7244337653
1114687500 0.7411660369 -0.5664530623 -0.0019530412 0.0019749414 -0.0019066600 0.0019673213 0.5740497952 -0.7222334818
1115000000 0.7347589730 -0.5639454722 -0.0014388910 0.0031366685 -0.0013519224 0.0030706217 0.5680180597 -0.7135650403
1115312500 0.7345918313 -0.5578681376 -0.0000719793 0.0031055119 -0.0000593105 0.0029657343 0.5744496242 -0.7010321361
1115625000 0.7370973144 -0.5551485048 0.0001175546 0.0024991361 0.0001084566 0.0024100992 0.5869697210 -0.6996478498
1115937500 0.7335223711 -0.5557562666 0.0001392110 0.0022112240 0.0001383398 0.0021425230 0.5941321999 -0.7083887447
1116250000 0.7315975893 -0.5534328448 0.0000771856 0.0021226271 0.0000785651 0.0020686730 0.5912102825 -0.7191416851
1116562500 0.7330585395 -0.5465798677 0.0001249661 0.0023123483 0.0001336329 0.0022206398 0.5862362899 -0.7214570869
1116875000 0.7353006317 -0.5446405830 0.0005218766 0.0022665117 0.0004823694 0.0021530200 0.5808937516 -0.7239756268
1117187500 0.7389412172 -0.5416730516 0.0005112810 0.0018719962 0.0004652906 0.0017790852 0.5748399036 -0.7224358621
1117500000 0.7434841621 -0.5400766841 0.0003508765 0.0021638214 0.0003062010 0.0020765328 0.5722812244 -0.7149357107
1117812500 0.7504863360 -0.5418490016 0.0011106927 0.0020525868 0.0010989234 0.0019745949 0.5734655244 -0.7100829404
1118125000 0.7513805468 -0.5496332145 0.0013268493 0.0011175145 0.0012843851 0.0010273110 0.5785710749 -0.7086328235
1118437500 0.7486891312 -0.5509537075 0.0004771335 0.0002112119 0.0004211796 0.0001830375 0.5808782301 -0.7069799261
1118750000 0.7450713916 -0.5494538804 -0.0005783502 0.0006420351 -0.0006230903 0.0006594980 0.5843931534 -0.7067351489
1119062500 0.7480542061 -0.5454987050 -0.0007179795 0.0016819948 -0.0007064885 0.0016350091 0.5837348940 -0.7072366828
1119375000 0.7583851603 -0.5452940666 -0.0000075980 0.0018789763 -0.0000170564 0.0018126823 0.5921868755 -0.7060734021
1119687500 0.7611236833 -0.5538414127 -0.0000074368 0.0013787882 -0.0000695369 0.0013605053 0.5989952419 -0.7124894359
1120000000 0.7598988016 -0.5627075755 -0.0003342942 0.0014767848 -0.0003430227 0.0014687197 0.5970811265 -0.7234242409
1120312500 0.7533881918 -0.5690061932 -0.0004941669 0.0016309124 -0.0004682297 0.0015658792 0.5901543805 -0.7305032050
1120625000 0.7469532869 -0.5715696837 -0.0007944840 0.0019298697 -0.0007893553 0.0019053559 0.5841962611 -0.7321139371
1120937500 0.7396318938 -0.5697921582 -0.0007291698 0.0029394053 -0.0006428691 0.0028688132 0.5744134132 -0.7297464826
1121250000 0.7376017027 -0.5660853013 0.0003999928 0.0033090383 0.0004604401 0.0031498697 0.5705366899 -0.7248322232
1121562500 0.7332512092 -0.5663779337 0.0011809279 0.0028139267 0.0011484323 0.0027108363 0.5683546496 -0.7182486066
1121875000 0.7328553257 -0.5628165737 0.0017085766 0.0021495240 0.0016354285 0.0020117027 0.5738403791 -0.7113784896
1122187500 0.7301494737 -0.5610132755 0.0016627591 0.0011442998 0.0015535240 0.0010486656 0.5753105874 -0.7121699388
1122500000 0.7271294837 -0.5578401143 0.0008806687 0.0004508369 0.0007644671 0.0003921684 0.5807999203 -0.7118534270
1122812500 0.7245409314 -0.5473079750 -0.0002122950 0.0005912581 -0.0002843227 0.0006002841 0.5815300153 -0.7140559845
1123125000 0.7335614193 -0.5414652954 -0.0005448386 0.0016957971 -0.0005128742 0.0017050740 0.5837880838 -0.7145196056
1123437500 0.7406199804 -0.5405390598 0.0001296624 0.0020739893 0.0001584355 0.0019733823 0.5819031753 -0.7191082755
1123750000 0.7467102828 -0.5447028731 0.0004681823 0.0018399831 0.0004414651 0.0017444840 0.5789503819 -0.7187882820
1124062500 0.7474019155 -0.5522325113 0.0003091238 0.0016738726 0.0002727675 0.0016388890 0.5804158437 -0.7156356102
1124375000 0.7426189285 -0.5547503488 0.0004173492 0.0020273798 0.0004388040 0.0019761514 0.5835684661 -0.7188564272
1124687500 0.7392379781 -0.5518792950 0.0010376440 0.0018430572 0.0010340219 0.0017274626 0.5801517117 -0.7246368847
1125000000 0.7407632154 -0.5455120997 0.0011019910 0.0008304714 0.0009885904 0.0007153592 0.5739073051 -0.7208072147
1125312500 0.7489029111 -0.5431007137 -0.0001268224 0.0004110088 -0.0002294377 0.0003878113 0.5734394664 -0.7157606977
1125625000 0.7559689498 -0.5509613103 -0.0010366576 0.0013950626 -0.0010910594 0.0014333539 0.5766249721 -0.7114124299
1125937500 0.7585485659 -0.5545468645 -0.0006350361 0.0028922169 -0.0005967032 0.0028734833 0.5862394619 -0.7103947488
1126250000 0.7547340143 -0.5646003602 0.0008855324 0.0029729543 0.0008922747 0.0028518838 0.5871054952 -0.7183684946
1126562500 0.7488457368 -0.5708835423 0.0013237866 0.0018683075 0.0012697004 0.0018116405 0.5843517269 -0.7208616407
1126875000 0.7424838264 -0.5690081543 0.0007037698 0.0014309000 0.0006621838 0.0013864101 0.5868420470 -0.7210687094
1127187500 0.7392815020 -0.5660947676 0.0001371430 0.0017738801 0.0001149476 0.0017508925 0.5844171012 -0.7239875779
1127500000 0.7397536477 -0.5629200934 0.0004299387 0.0026886865 0.0004581593 0.0025871920 0.5854079779 -0.7245932954
1127812500 0.7434726500 -0.5635768296 0.0015635665 0.0027151860 0.0015315376 0.0025807159 0.5851960479 -0.7278891856
1128125000 0.7404969925 -0.5706929662 0.0020971820 0.0020429436 0.0020643231 0.0019581917 0.5823772363 -0.7326547181
1128437500 0.7323049832 -0.5746756131 0.0021722728 0.0012876182 0.0020948767 0.0012263955 0.5764772149 -0.7385139536
1128750000 0.7202373508 -0.5681560355 0.0022226223 0.0008111348 0.0022154365 0.0007490263 0.5677701311 -0.7392384360
1129062500 0.7166341567 -0.5517961049 0.0022195404 -0.0003414815 0.0020828653 -0.0003970994 0.5564437859 -0.7276368765
1129375000 0.7295582049 -0.5422355071 0.0005654569 -0.0012966322 0.0003909793 -0.0012582128 0.5639185569 -0.7159455313
1129687500 0.7413801149 -0.5426205216 -0.0009293420 -0.0000773883 -0.0009483318 0.0000156817 0.5719604466 -0.7184409044
1130000000 0.7441574622 -0.5503336251 -0.0006551687 0.0011472204 -0.0006291546 0.0011471884 0.5673503550 -0.7177108857
1130312500 0.7441054004 -0.5554834881 0.0000153175 0.0015525179 0.0000141534 0.0015247381 0.5676345707 -0.7108756043
1130625000 0.7390721539 -0.5608513670 0.0005300071 0.0013166349 0.0004966385 0.0012888800 0.5753042025 -0.7100437975
1130937500 0.7309165321 -0.5563950768 0.0003318941 0.0010332959 0.0003317940 0.0010241419 0.5821391345 -0.7156189083
1131250000 0.7312226535 -0.5430295550 0.0002577138 0.0012253903 0.0002642899 0.0011680476 0.5784060744 -0.7209116627
1131562500 0.7433738237 -0.5414391962 0.0006139531 0.0012199932 0.0005916614 0.0011221976 0.5755339301 -0.7199869773
1131875000 0.7522964838 -0.5473583644 0.0006554255 0.0006350621 0.0006049455 0.0005613544 0.5766046661 -0.7192885917
1132187500 0.7558214132 -0.5531698502 0.0001502178 0.0005319365 0.0000604402 0.0005315826 0.5811081674 -0.7159839233
1132500000 0.7536244917 -0.5614780379 -0.0002185939 0.0006845517 -0.0002764378 0.0006689174 0.5831703510 -0.7218921953
1132812500 0.7497859231 -0.5658534660 -0.0003269465 0.0009312975 -0.0003466088 0.0009242081 0.5805844020 -0.7260417976
1133125000 0.7438459854 -0.5678516359 -0.0004020657 0.0010031766 -0.0004025924 0.0010191764 0.5767810832 -0.7281214575
1133437500 0.7444113302 -0.5642899005 -0.0008320777 0.0008998323 -0.0008307773 0.0009039354 0.5773186203 -0.7277517965
1133750000 0.7444481631 -0.5656343703 -0.0017073814 0.0018975223 -0.0016718548 0.0018837576 0.5721968520 -0.7267602230
1134062500 0.7446902067 -0.5675262793 -0.0010505440 0.0036712533 -0.0009700997 0.0035944697 0.5708969368 -0.7211091735
1134375000 0.7441734110 -0.5724086901 0.0008170405 0.0040223439 0.0008714700 0.0038931367 0.5768350276 -0.7202674123
1134687500 0.7386905069 -0.5764435177 0.0021188144 0.0031068609 0.0021643065 0.0029717217 0.5801883227 -0.7259158344
1135000000 0.7279907071 -0.5755514006 0.0026181573 0.0016530745 0.0025168369 0.0015238010 0.5763706798 -0.7282425785
1135312500 0.7164994066 -0.5659905597 0.0020533989 0.0007054958 0.0019604834 0.0006373891 0.5717303160 -0.7289100658
1135625000 0.7210563469 -0.5514702867 0.0013878086 0.0003093592 0.0013171062 0.0002756598 0.5683526248 -0.7265415955
1135937500 0.7305332541 -0.5466699276 0.0007215501 0.0004189881 0.0006401389 0.0003767338 0.5697605895 -0.7200829658
1136250000 0.7380898749 -0.5477414921 0.0007674002 0.0008185535 0.0007054945 0.0007634836 0.5752511642 -0.7199321005
1136562500 0.7422077399 -0.5518012812 0.0009371100 0.0006616671 0.0008413930 0.0006168129 0.5800524199 -0.7245229606
1136875000 0.7417982060 -0.5574938707 0.0009338819 0.0003598836 0.0008405963 0.0003556412 0.5748674016 -0.7306447666
1137187500 0.7419984421 -0.5596357048 0.0007205461 -0.0000038067 0.0006762370 -0.0000098986 0.5708187013 -0.7285722965
1137500000 0.7390796455 -0.5582143650 -0.0001074285 -0.0001958394 -0.0001655687 -0.0001634865 0.5718766264 -0.7281341475
1137812500 0.7372495000 -0.5586508743 -0.0005710823 0.0005106778 -0.0005370094 0.0005513544 0.5669520173 -0.7312144631
1138125000 0.7380036928 -0.5598511228 -0.0003221560 0.0009992945 -0.0002876810 0.0009425855 0.5661994097 -0.7287990835
1138437500 0.7357296126 -0.5573004907 -0.0002854710 0.0011075293 -0.0002567990 0.0010888878 0.5621965356 -0.7268188208
1138750000 0.7385260067 -0.5515446011 0.0002310113 0.0014797827 0.0002055322 0.0013828642 0.5566357358 -0.7197813266
1139062500 0.7456546691 -0.5549594583 0.0006945341 0.0007922758 0.0006189452 0.0007276614 0.5633668709 -0.7130211361
1139375000 0.7486459615 -0.5571182336 0.0001305413 0.0002653418 0.0000883033 0.0002492286 0.5696396289 -0.7106483242
1139687500 0.7466177075 -0.5623722379 -0.0002981678 0.0001840260 -0.0003251155 0.0002109330 0.5736400272 -0.7121783394
1140000000 0.7484168250 -0.5641552578 -0.0010159248 0.0002150731 -0.0010648276 0.0001917764 0.5830000867 -0.7147200725
1140312500 0.7497495459 -0.5672544391 -0.0017246973 0.0011147207 -0.0017233003 0.0011192118 0.5835706932 -0.7221627368
1140625000 0.7457573856 -0.5722687816 -0.0012367815 0.0023159276 -0.0011779365 0.0022905187 0.5796850062 -0.7236318439
1140937500 0.7427896089 -0.5760273511 -0.0003297617 0.0024085219 -0.0003121841 0.0022986282 0.5825997066 -0.7273169515
1141250000 0.7358882055 -0.5760139779 0.0002612522 0.0021150837 0.0002560390 0.0020512475 0.5813189866 -0.7327630666
1141562500 0.7299511198 -0.5731727479 0.0003785689 0.0015160633 0.0003449544 0.0014160190 0.5754577193 -0.7369719914
1141875000 0.7277349851 -0.5685663134 -0.0002497385 0.0011444073 -0.0002736126 0.0010990809 0.5682257684 -0.7381831395
1142187500 0.7260914113 -0.5689629727 -0.0010503332 0.0018148625 -0.0010153571 0.0017662179 0.5599383014 -0.7362074994
1142500000 0.7253605473 -0.5640698297 -0.0005100192 0.0032012396 -0.0004951019 0.0030981226 0.5574716327 -0.7266969166
1142812500 0.7201208205 -0.5582765091 0.0010331796 0.0032579195 0.0010056539 0.0031043752 0.5633816656 -0.7195402250
1143125000 0.7254906763 -0.5490503840 0.0018597507 0.0023367603 0.0017936974 0.0022137339 0.5647884671 -0.7224781265
1143437500 0.7395536494 -0.5467466879 0.0021841782 0.0011580350 0.0020918116 0.0010304542 0.5699418594 -0.7213429915
1143750000 0.7466115380 -0.5525695296 0.0013142473 -0.0000838310 0.0011857662 -0.0001295812 0.5723033986 -0.7224877243
1144062500 0.7447694651 -0.5629737731 -0.0000738265 0.0000548509 -0.0001504724 0.0000707359 0.5675951766 -0.7255537884
1144375000 0.7429968123 -0.5679037794 -0.0005986283 0.0009537409 -0.0005895304 0.0009306246 0.5701707394 -0.7227400834
1144687500 0.7374513577 -0.5705775250 -0.0003712745 0.0019386973 -0.0003319917 0.0019133691 0.5748689224 -0.7238920647
1145000000 0.7306503767 -0.5674639814 0.0007681202 0.0023341903 0.0007570637 0.0022264668 0.5770827752 -0.7287186104
1145312500 0.7281868736 -0.5573418217 0.0017900585 0.0012958306 0.0017397332 0.0011809153 0.5710271762 -0.7354530103
1145625000 0.7369849869 -0.5523521801 0.0012843096 -0.0000077110 0.0012025346 -0.0000810776 0.5619629606 -0.7333077867
1145937500 0.7429028538 -0.5563246982 0.0002939421 -0.0001417798 0.0002285896 -0.0001189146 0.5600468325 -0.7286229526
1146250000 0.7464734797 -0.5598395071 0.0000616194 0.0000650763 0.0000657890 0.0000204375 0.5608981928 -0.7256471205
1146562500 0.7467502542 -0.5654772464 -0.0003535385 -0.0002512918 -0.0003947395 -0.0002905535 0.5636282323 -0.7260545163
1146875000 0.7442201677 -0.5705575672 -0.0015797120 -0.0000983672 -0.0016269998 -0.0000680331 0.5579420979 -0.7284972913
1147187500 0.7409970112 -0.5713094109 -0.0018888966 0.0016179842 -0.0018536401 0.0016024692 0.5533962470 -0.7171866216
1147500000 0.7386718645 -0.5722562784 -0.0005757198 0.0020806627 -0.0005688350 0.0019804514 0.5655838552 -0.7110312576
1147812500 0.7378820339 -0.5715991832 -0.0003009549 0.0014652738 -0.0003264806 0.0014223782 0.5712713802 -0.7171180415
1148125000 0.7369765548 -0.5735893673 -0.0005476210 0.0011244425 -0.0005108828 0.0011122652 0.5727075753 -0.7197890651
1148437500 0.7363386054 -0.5754422583 -0.0012580153 0.0009435723 -0.0012875293 0.0009308906 0.5745033221 -0.7254741535
1148750000 0.7314076832 -0.5783963488 -0.0022107823 0.0021876932 -0.0021594549 0.0021838024 0.5683674816 -0.7286022152
1149062500 0.7234206639 -0.5771784876 -0.0011209060 0.0039296684 -0.0010155548 0.0038603412 0.5663313097 -0.7248996327
1149375000 0.7121731723 -0.5707188848 0.0006185038 0.0036128384 0.0006248961 0.0034832241 0.5663711773 -0.7260546018
1149687500 0.7138104929 -0.5536027572 0.0015202647 0.0025950422 0.0014682776 0.0024156666 0.5652891183 -0.7244779847
1150000000 0.7292313899 -0.5472086344 0.0012142408 0.0012919874 0.0011208268 0.0012361356 0.5660391241 -0.7247382062
1150312500 0.7399016140 -0.5544357212 0.0002914217 0.0008905635 0.0002079963 0.0008706696 0.5661594679 -0.7267504584
1150625000 0.7401484928 -0.5624657763 -0.0006240183 0.0012072675 -0.0006694416 0.0011792309 0.5620037974 -0.7250779048
1150937500 0.7369657768 -0.5654679531 -0.0010834419 0.0021983223 -0.0010767290 0.0021654543 0.5595664234 -0.7200803685
1151250000 0.7342563539 -0.5668097181 -0.0003142600 0.0035951215 -0.0002895240 0.0034809635 0.5663367098 -0.7155075689
1151562500 0.7347431854 -0.5670275959 0.0012711658 0.0033326937 0.0012187636 0.0032183488 0.5767806911 -0.7197260467
1151875000 0.7322178426 -0.5640807544 0.0019216003 0.0023234409 0.0018649112 0.0022150640 0.5729199808 -0.7269417101
1152187500 0.7327262673 -0.5620333695 0.0018249455 0.0011938920 0.0017170584 0.0011274515 0.5672461326 -0.7316750249
1152500000 0.7373276216 -0.5610655660 0.0010366536 0.0005730889 0.0009264637 0.0005219599 0.5602804577 -0.7268941735
1152812500 0.7382105878 -0.5665651672 0.0000972043 0.0008393284 0.0000231613 0.0008252923 0.5627933728 -0.7185938629
1153125000 0.7334537970 -0.5653880878 0.0000585222 0.0017349097 0.0000588073 0.0016837070 0.5708959039 -0.7200283187
1153437500 0.7331216893 -0.5616119757 0.0006095408 0.0018597719 0.0005496416 0.0017680970 0.5717843982 -0.7270131048
1153750000 0.7385272236 -0.5604097958 0.0011546153 0.0013681158 0.0010705240 0.0013153056 0.5662001653 -0.7308263170
1154062500 0.7420809650 -0.5630471412 0.0006126898 0.0006862629 0.0005403920 0.0006708840 0.5587348381 -0.7284910309
1154375000 0.7425743416 -0.5675180968 0.0002651150 0.0009571385 0.0002140540 0.0009678364 0.5576537408 -0.7224146392
1154687500 0.7411042623 -0.5718222789 0.0001815323 0.0008910501 0.0001569533 0.0008653435 0.5603319462 -0.7175090294
1155000000 0.7399538912 -0.5755532375 -0.0001549765 0.0008986868 -0.0001936345 0.0008301919 0.5654236161 -0.7168864421
1155312500 0.7375087240 -0.5774924364 -0.0007212428 0.0010145837 -0.0007360060 0.0009806675 0.5691073993 -0.7199601608
1155625000 0.7296813834 -0.5788880303 -0.0012016268 0.0020297914 -0.0012555536 0.0020167702 0.5639191618 -0.7202821645
1155937500 0.7232730922 -0.5750700151 0.0001009066 0.0033739889 0.0001542152 0.0032787703 0.5663517877 -0.7151565967
1156250000 0.7214536110 -0.5698793754 0.0016082622 0.0021540329 0.0015557383 0.0020399870 0.5692364455 -0.7177730392
1156562500 0.7296970855 -0.5647077445 0.0011250218 0.0006954652 0.0010330548 0.0006660493 0.5770660443 -0.7175406498
1156875000 0.7264641615 -0.5682676001 -0.0001439512 0.0004441443 -0.0001667537 0.0004136034 0.5750732658 -0.7236097808
1157187500 0.7234492979 -0.5656903039 -0.0010867991 0.0013778052 -0.0010749410 0.0013621138 0.5715494130 -0.7255490742
1157500000 0.7249412451 -0.5622771248 -0.0005932791 0.0029158679 -0.0005698172 0.0028494892 0.5719061672 -0.7209031690
1157812500 0.7308138857 -0.5570084370 0.0009749094 0.0027134709 0.0009213383 0.0025893215 0.5770851528 -0.7228342955
1158125000 0.7354322761 -0.5566531715 0.0013463637 0.0016708501 0.0012716916 0.0015875952 0.5777163129 -0.7282663648
1158437500 0.7399955664 -0.5617974919 0.0010589849 0.0007355516 0.0009853789 0.0007186953 0.5741512451 -0.7341476100
1158750000 0.7418799494 -0.5666035666 0.0000133978 0.0003923387 -0.0000473729 0.0003470128 0.5697006647 -0.7352512083
1159062500 0.7380203009 -0.5733694999 -0.0009733249 0.0007870167 -0.0010146986 0.0007688904 0.5637292646 -0.7365304534
1159375000 0.7328411720 -0.5743619535 -0.0017557426 0.0018094296 -0.0017616212 0.0018067639 0.5593784727 -0.7287929474
1159687500 0.7262185252 -0.5700842847 -0.0014233708 0.0037615847 -0.0014006662 0.0037088708 0.5601712243 -0.7207486100
1160000000 0.7283690822 -0.5630750780 0.0008976522 0.0043188617 0.0008883066 0.0041672569 0.5698673873 -0.7223880182
1160312500 0.7344138994 -0.5614223199 0.0018832033 0.0029322505 0.0018113115 0.0028386867 0.5707046615 -0.7291776902
1160625000 0.7382327460 -0.5636912993 0.0018824375 0.0021879573 0.0018083418 0.0020965782 0.5634854735 -0.7317366329
1160937500 0.7400256693 -0.5669429595 0.0017707329 0.0013364943 0.0016772380 0.0012668333 0.5583091158 -0.7249453459
1161250000 0.7377960280 -0.5736559181 0.0008722696 0.0008522082 0.0007925221 0.0008084273 0.5628591602 -0.7152717664
1161562500 0.7329461363 -0.5729730281 0.0003382916 0.0017087094 0.0002828308 0.0016667359 0.5773600191 -0.7166843973
1161875000 0.7325982353 -0.5663024361 0.0009149451 0.0023320525 0.0008705217 0.0021578383 0.5793367901 -0.7245796037
1162187500 0.7346436613 -0.5701224597 0.0017144279 0.0019897946 0.0016440774 0.0019053531 0.5760988816 -0.7311638425
1162500000 0.7374874367 -0.5718491154 0.0019494741 0.0009768817 0.0018349624 0.0009038199 0.5720654918 -0.7338982660
1162812500 0.7338984514 -0.5770543678 0.0013914809 0.0004411521 0.0013290831 0.0004185639 0.5652146638 -0.7343684613
1163125000 0.7319224462 -0.5771111888 0.0009202226 0.0001107548 0.0008745976 0.0001104283 0.5671909355 -0.7285567139
1163437500 0.7275271914 -0.5772807838 0.0002968866 0.0000885786 0.0002836293 0.0000604457 0.5695313742 -0.7280667091
1163750000 0.7217978676 -0.5754828907 -0.0002753664 0.0003074443 -0.0003286435 0.0002932982 0.5681152954 -0.7343638807
1164062500 0.7209212476 -0.5694025611 -0.0010619593 0.0009653961 -0.0011123715 0.0009506827 0.5633712308 -0.7358382367
1164375000 0.7255730996 -0.5618920569 -0.0006970277 0.0025809590 -0.0006742717 0.0025827854 0.5593221932 -0.7304331270
1164687500 0.7323653575 -0.5605010541 0.0013275127 0.0025027269 0.0013528163 0.0024228176 0.5614129342 -0.7233688031
1165000000 0.7370919956 -0.5679703715 0.0016030979 0.0005868512 0.0015321049 0.0005443458 0.5657327550 -0.7228682989