# HZ S RI R 50
100000000 0.9897698726 -0.1217495247 0.0001881179 0.0008133213 0.0001616431 0.0008300829 0.9805542749 -0.1809051214
103004507 0.9890689644 -0.1249682825 0.0001865138 0.0008905898 0.0001751011 0.0008949474 0.9792749406 -0.1857480329
106009014 0.9883941135 -0.1287908240 0.0002676663 0.0008476683 0.0002931422 0.0008549405 0.9784573971 -0.1907126980
109013521 0.9875557756 -0.1325897170 0.0002217899 0.0009402378 0.0002272879 0.0009435867 0.9771406539 -0.1966308997
112018028 0.9868708670 -0.1363592061 0.0002674256 0.0009595092 0.0002859781 0.0009544511 0.9755977459 -0.2020637587
115022535 0.9865240617 -0.1396454341 0.0002846045 0.0010019764 0.0002914617 0.0009893813 0.9743695617 -0.2072843564
118027042 0.9855940676 -0.1437695333 0.0001777815 0.0008641809 0.0001658044 0.0008594860 0.9734303628 -0.2116109877
121031549 0.9843564533 -0.1469086537 0.0003129361 0.0009011054 0.0003269640 0.0009026084 0.9704189162 -0.2165916817
124036056 0.9843317802 -0.1499052803 0.0002720017 0.0008944309 0.0002636443 0.0008882955 0.9709590404 -0.2212360249
127040563 0.9839348636 -0.1539046752 0.0003701570 0.0009717242 0.0003543303 0.0009924386 0.9698582100 -0.2267848475
130045070 0.9829476797 -0.1571560680 0.0002861288 0.0009417085 0.0002910526 0.0009472570 0.9685251777 -0.2318143420
133049577 0.9830023738 -0.1604408018 0.0003304715 0.0009716770 0.0003318684 0.0009665147 0.9671169782 -0.2369735539
136054084 0.9824772115 -0.1644177136 0.0003634817 0.0010133060 0.0003382649 0.0010152509 0.9660438438 -0.2422923369
139058591 0.9813952151 -0.1676092674 0.0002802204 0.0010104601 0.0002681971 0.0010067039 0.9647082607 -0.2470993596
142063098 0.9804346577 -0.1717799078 0.0003520966 0.0010731243 0.0003639450 0.0010710915 0.9631147238 -0.2525761604
145067605 0.9788478053 -0.1743732049 0.0004385066 0.0010820005 0.0004408053 0.0010672579 0.9604104158 -0.2565305341
148072112 0.9787311630 -0.1769831036 0.0004062329 0.0011175136 0.0004147506 0.0011109297 0.9596036400 -0.2623411238
151076619 0.9786378458 -0.1810335177 0.0004581097 0.0010644659 0.0004549797 0.0010441504 0.9585627945 -0.2663168735
154081126 0.9780811120 -0.1844429864 0.0003666937 0.0011424617 0.0003651455 0.0011368015 0.9573794649 -0.2712855244
157085633 0.9772641915 -0.1877169808 0.0003854517 0.0012140433 0.0003921241 0.0012298473 0.9560118531 -0.2761163319
160090140 0.9763119482 -0.1917838352 0.0004151822 0.0011814045 0.0004391408 0.0011698073 0.9547536472 -0.2819139616
163094647 0.9756716350 -0.1954321147 0.0004566516 0.0012229442 0.0004695943 0.0012286963 0.9528212790 -0.2870418875
166099154 0.9741714562 -0.1982557140 0.0006088058 0.0012635393 0.0006177113 0.0012767033 0.9493993502 -0.2921577360
169103661 0.9721493808 -0.2015020339 0.0004730959 0.0012068300 0.0004669113 0.0012053052 0.9467410563 -0.2948489707
172108168 0.9724268503 -0.2039996736 0.0005971023 0.0011338510 0.0006007893 0.0011510688 0.9465198099 -0.2988169867
175112675 0.9715089452 -0.2078355925 0.0004957011 0.0012071210 0.0004825414 0.0012332135 0.9461301396 -0.3044793350
178117182 0.9709204199 -0.2111133264 0.0004598943 0.0012200660 0.0004741763 0.0012327730 0.9438863788 -0.3095039078
181121689 0.9704230232 -0.2148385772 0.0005152884 0.0013110320 0.0005200758 0.0013066590 0.9432506577 -0.3142845164
184126196 0.9691678633 -0.2177750945 0.0005323285 0.0012666337 0.0005483855 0.0012904077 0.9412225471 -0.3191327694
187130703 0.9686470377 -0.2222808755 0.0005032221 0.0013021878 0.0005049205 0.0013071559 0.9393848775 -0.3253205124
190135210 0.9674300444 -0.2258103787 0.0005655492 0.0013366980 0.0005511591 0.0013394179 0.9371870792 -0.3296543403
193139717 0.9651250890 -0.2283616085 0.0006849348 0.0013931515 0.0006849542 0.0014004540 0.9342758548 -0.3334429951
196144224 0.9656859460 -0.2307558308 0.0006149064 0.0013797814 0.0006084799 0.0013766063 0.9331207413 -0.3381729619
199148731 0.9645771101 -0.2349279223 0.0006952967 0.0014379861 0.0007100821 0.0014570599 0.9316382056 -0.3431208446
202153238 0.9642642679 -0.2374921248 0.0005824312 0.0013587367 0.0005898175 0.0013801346 0.9298529493 -0.3476768115
205157745 0.9630594406 -0.2414300046 0.0006474881 0.0014110954 0.0006536922 0.0013997188 0.9282227484 -0.3522031801
208162252 0.9616890704 -0.2446690994 0.0006024603 0.0014308433 0.0006116822 0.0014177845 0.9266698522 -0.3568590011
211166759 0.9609948768 -0.2480375759 0.0006171133 0.0014235963 0.0006233826 0.0014199962 0.9240643826 -0.3626964708
214171266 0.9605926577 -0.2512266581 0.0006508905 0.0014208673 0.0006582900 0.0014321574 0.9218516147 -0.3666723427
217175773 0.9579514270 -0.2541907641 0.0006788431 0.0013727233 0.0006853992 0.0013775790 0.9185732029 -0.3687571472
220180280 0.9576837333 -0.2574550392 0.0006775669 0.0014071617 0.0006861656 0.0014119256 0.9178835996 -0.3735337954
223184787 0.9567128739 -0.2597432349 0.0006997964 0.0013485291 0.0006977573 0.0013482739 0.9167034998 -0.3782828195
226189294 0.9564591153 -0.2642081621 0.0007261718 0.0015261612 0.0007074706 0.0014993755 0.9153289019 -0.3839633194
229193801 0.9552342498 -0.2671373271 0.0007549768 0.0014575810 0.0007539295 0.0014693363 0.9132579890 -0.3878559318
232198308 0.9541130633 -0.2709954183 0.0007260778 0.0014833808 0.0007320347 0.0014802252 0.9105100115 -0.3934023270
235202815 0.9533595249 -0.2748551349 0.0007470544 0.0015168020 0.0007776480 0.0015353907 0.9089335359 -0.3977844625
238207322 0.9518862187 -0.2782802236 0.0007812027 0.0015436960 0.0007949707 0.0015345648 0.9060403328 -0.4026958071
241211829 0.9496411808 -0.2802117696 0.0008139760 0.0015061632 0.0008092936 0.0015110041 0.9035942414 -0.4056498046
244216336 0.9494325005 -0.2830806600 0.0008417937 0.0015379026 0.0008369836 0.0015399773 0.9024931958 -0.4096244062
247220843 0.9487845808 -0.2863121911 0.0007776520 0.0016267279 0.0007768848 0.0016233726 0.8999969442 -0.4146840922
250225350 0.9478868617 -0.2892005306 0.0008016176 0.0015739941 0.0008044277 0.0015745791 0.8985515583 -0.4185051135
253229857 0.9462930434 -0.2929275956 0.0009094924 0.0016710277 0.0009263767 0.0016587617 0.8956096628 -0.4227409374
256234364 0.9460607564 -0.2964845771 0.0008028818 0.0014630947 0.0008206815 0.0014669611 0.8947555840 -0.4274599731
259238871 0.9447999946 -0.2994100953 0.0008414138 0.0016428750 0.0008546176 0.0016400642 0.8921496761 -0.4327096915
262243378 0.9434537338 -0.3037330390 0.0008817201 0.0016812956 0.0008732987 0.0016599386 0.8893686173 -0.4376239806
265247885 0.9418170967 -0.3048415533 0.0010372035 0.0016835962 0.0010347128 0.0016474398 0.8866433772 -0.4393106678
268252392 0.9404254209 -0.3081831136 0.0008635374 0.0015842337 0.0008596748 0.0015641708 0.8850076975 -0.4435065933
271256899 0.9398310446 -0.3111062359 0.0009121724 0.0016074949 0.0009085853 0.0016116118 0.8832743533 -0.4469271504
274261406 0.9387850548 -0.3143931607 0.0009097480 0.0016314180 0.0009274646 0.0016319557 0.8820378865 -0.4523364833
277265913 0.9385871314 -0.3165470865 0.0009097210 0.0016255651 0.0009008260 0.0016121162 0.8796883137 -0.4562807142
280270420 0.9369826316 -0.3206395277 0.0009339272 0.0016860774 0.0009344128 0.0016703084 0.8777229737 -0.4607042617
283274927 0.9358249865 -0.3240834895 0.0009605664 0.0016927083 0.0009721501 0.0016900629 0.8754928870 -0.4649399700
286279434 0.9336794057 -0.3281843344 0.0009727924 0.0017090464 0.0009817008 0.0016912269 0.8723600669 -0.4696955640
289283941 0.9317300545 -0.3290978606 0.0010410729 0.0017257037 0.0010540359 0.0017029576 0.8690403849 -0.4722775488
292288448 0.9313517338 -0.3317659855 0.0009745431 0.0016908262 0.0009840676 0.0017018268 0.8682447191 -0.4765496721
295292955 0.9297612583 -0.3352238004 0.0009990558 0.0017071764 0.0010056492 0.0016911146 0.8650497257 -0.4808843762
298297462 0.9291162993 -0.3388306637 0.0010501326 0.0018304850 0.0010209306 0.0018014705 0.8625739813 -0.4852918419
301301969 0.9281341427 -0.3414660901 0.0010577465 0.0016584001 0.0011629483 0.0016307954 0.8604827809 -0.4884244518
304306476 0.9271853653 -0.3446201468 0.0010650528 0.0016872311 0.0009356978 0.0016924739 0.8581592748 -0.4918267324
307310983 0.9258371282 -0.3482302172 0.0009706094 0.0017331251 0.0010126611 0.0017871621 0.8561053479 -0.4965972992
310315490 0.9235815731 -0.3517836705 0.0011601528 0.0018144223 0.0010456995 0.0017612850 0.8535180833 -0.5010113031
313319997 0.9230070859 -0.3520649847 0.0011344983 0.0018149349 0.0011384127 0.0017796108 0.8512437430 -0.5025132227
316324504 0.9222997700 -0.3547380126 0.0012810702 0.0017385570 0.0012622155 0.0017433531 0.8490066380 -0.5058160488
319329011 0.9214159879 -0.3580454265 0.0011915018 0.0017326349 0.0012006538 0.0017296454 0.8465454350 -0.5094365321
322333518 0.9206505064 -0.3616607999 0.0011089351 0.0016490827 0.0011154350 0.0016249267 0.8461247078 -0.5143801034
325338025 0.9195459540 -0.3643203858 0.0011018283 0.0017616600 0.0011092604 0.0017630320 0.8433912039 -0.5180605935
328342532 0.9183454229 -0.3680238039 0.0011956323 0.0017694655 0.0012068721 0.0017425823 0.8414341767 -0.5222360462
331347039 0.9164069975 -0.3709620002 0.0011676088 0.0017966257 0.0011910029 0.0017997051 0.8387132260 -0.5258389982
334351546 0.9148009647 -0.3747214613 0.0012217890 0.0018430006 0.0012270771 0.0018501053 0.8355784898 -0.5307097797
337356053 0.9126581012 -0.3752744512 0.0012413196 0.0017706077 0.0012539002 0.0017575534 0.8324792129 -0.5326213993
340360560 0.9122747983 -0.3787416826 0.0011653040 0.0018026484 0.0011823351 0.0017916590 0.8309048762 -0.5366559971
343365067 0.9116417811 -0.3812458432 0.0012210314 0.0018184368 0.0012306857 0.0018177190 0.8288152326 -0.5400076777
346369574 0.9108392591 -0.3841297870 0.0012777883 0.0018033048 0.0012866606 0.0018035678 0.8261673224 -0.5439997362
349374081 0.9091588460 -0.3873757075 0.0013260575 0.0018088174 0.0013164365 0.0017660681 0.8241426216 -0.5469598335
352378588 0.9076695628 -0.3912132583 0.0013550796 0.0018318952 0.0013478332 0.0018064657 0.8198957854 -0.5513436238
355383095 0.9061012937 -0.3942783049 0.0013113939 0.0017424122 0.0013017157 0.0017159793 0.8194393573 -0.5536225789
358387602 0.9038378595 -0.3966974799 0.0012189457 0.0019085860 0.0012412917 0.0018795777 0.8165283717 -0.5581785000
361392109 0.9035988616 -0.3972125536 0.0013158018 0.0017161649 0.0013112729 0.0016910407 0.8146211304 -0.5599638867
364396616 0.9026886083 -0.4003210489 0.0013165789 0.0018131092 0.0013252763 0.0017804728 0.8129248833 -0.5638937506
367401123 0.9015976016 -0.4028977898 0.0013975528 0.0018467500 0.0013929384 0.0018069761 0.8103755217 -0.5665267442
370405630 0.9006392285 -0.4064142663 0.0013902587 0.0017844564 0.0013736230 0.0017648051 0.8083221674 -0.5703220773
373410137 0.8988697956 -0.4097666380 0.0012950172 0.0018901124 0.0013043500 0.0018487383 0.8059864737 -0.5744597462
376414644 0.8981386665 -0.4118864790 0.0013445551 0.0018368126 0.0013394978 0.0018125473 0.8043089491 -0.5780711466
379419151 0.8966137640 -0.4151727556 0.0013719118 0.0018384615 0.0013541280 0.0018295481 0.8015517225 -0.5823648252
382423658 0.8937923648 -0.4183454025 0.0014014002 0.0018965848 0.0013972974 0.0018534164 0.7979105404 -0.5859489984
385428165 0.8934790872 -0.4191928539 0.0014025199 0.0018453225 0.0014123212 0.0018132881 0.7964230734 -0.5872625718
388432672 0.8934302936 -0.4209978644 0.0014594655 0.0018074853 0.0014512808 0.0017931858 0.7948189568 -0.5906778502
391437179 0.8920255702 -0.4247221535 0.0014552006 0.0018411379 0.0014665574 0.0018112843 0.7921225960 -0.5940870020
394441686 0.8907359265 -0.4274381267 0.0014290995 0.0018738359 0.0014359704 0.0018520471 0.7895272666 -0.5977770824
397446193 0.8894034982 -0.4304126723 0.0014920933 0.0018641027 0.0014824160 0.0018515312 0.7865201448 -0.6015140966
400450700 0.8869962837 -0.4326664178 0.0014786532 0.0018801958 0.0014807476 0.0018431479 0.7828067141 -0.6040125794
403455207 0.8855402237 -0.4363995257 0.0016421037 0.0018646896 0.0016375642 0.0018391954 0.7812712277 -0.6058552974
406459714 0.8832700734 -0.4394061264 0.0014707946 0.0017627795 0.0014602449 0.0017314869 0.7788156481 -0.6103293720
409464221 0.8827309947 -0.4395423659 0.0014735471 0.0018429108 0.0014690512 0.0018380807 0.7771775307 -0.6107233060
412468728 0.8826361399 -0.4421654080 0.0015157077 0.0018568515 0.0015156749 0.0018516381 0.7758923860 -0.6149810200
415473235 0.8816155707 -0.4460376671 0.0015445290 0.0018596711 0.0015413588 0.0018500895 0.7730884794 -0.6189463485
418477742 0.8792485546 -0.4485445173 0.0015122890 0.0018367171 0.0015023529 0.0018058810 0.7693876145 -0.6213390747
421482249 0.8777287877 -0.4508919545 0.0015324119 0.0018697025 0.0015235320 0.0018395850 0.7683587385 -0.6243776997
424486756 0.8771673651 -0.4533987380 0.0015708170 0.0018660533 0.0015509958 0.0018227517 0.7659725619 -0.6285172884
427491263 0.8752509867 -0.4562944831 0.0015571938 0.0018530998 0.0015753642 0.0018397998 0.7632745354 -0.6307752668
430495770 0.8723811359 -0.4585105442 0.0015838972 0.0018846177 0.0015675203 0.0018396965 0.7598691911 -0.6340849966
433500277 0.8718696499 -0.4596394246 0.0015870794 0.0017889345 0.0015826998 0.0017706249 0.7576711110 -0.6359629355
436504784 0.8718803495 -0.4614625997 0.0015643708 0.0019025469 0.0015711127 0.0018737488 0.7562140628 -0.6375242597
439509291 0.8710367643 -0.4652720524 0.0015815820 0.0018390713 0.0015583665 0.0018035065 0.7537825446 -0.6416394748
442513798 0.8681301989 -0.4684617336 0.0016019595 0.0018279563 0.0016094383 0.0017933520 0.7516251707 -0.6446723851
445518305 0.8671867065 -0.4701739115 0.0017269729 0.0019299936 0.0017000025 0.0018970027 0.7489628858 -0.6477951439
448522812 0.8660713131 -0.4730629132 0.0016204587 0.0018727483 0.0016113536 0.0018483933 0.7457832626 -0.6514672537
451527319 0.8656690261 -0.4746496362 0.0016813067 0.0018524825 0.0016740606 0.0018198572 0.7418371324 -0.6530768455
454531826 0.8613649332 -0.4772279027 0.0017358088 0.0017917509 0.0017175008 0.0017583424 0.7402917089 -0.6547361745
457536333 0.8615943792 -0.4780297032 0.0015863327 0.0017676984 0.0015718510 0.0017407136 0.7392910825 -0.6553063992
460540840 0.8608127920 -0.4808597457 0.0016490788 0.0018293208 0.0016511967 0.0018060727 0.7384082558 -0.6592528051
463545347 0.8593106708 -0.4833533266 0.0016376481 0.0018340321 0.0016361045 0.0018203286 0.7354821231 -0.6622920746
466549854 0.8579234484 -0.4866440754 0.0016611138 0.0018342925 0.0016743020 0.0018135452 0.7339584453 -0.6650644642
469554361 0.8561544111 -0.4883657114 0.0016900732 0.0018040762 0.0016825471 0.0017743592 0.7304443283 -0.6679141614
472558868 0.8556567471 -0.4906284001 0.0016815176 0.0018629141 0.0016596040 0.0018338894 0.7283710883 -0.6710504535
475563375 0.8536544178 -0.4939768434 0.0017220646 0.0018027645 0.0017155683 0.0017734608 0.7259111281 -0.6737667677
478567882 0.8504023398 -0.4950333012 0.0016548294 0.0018669427 0.0016381943 0.0018172706 0.7215117100 -0.6764761853
481572389 0.8503232259 -0.4957380306 0.0016991554 0.0018370809 0.0016692088 0.0017903988 0.7194272367 -0.6785279195
484576896 0.8487161581 -0.4991490835 0.0017342207 0.0018481145 0.0017225543 0.0018204025 0.7160337191 -0.6800455820
487581403 0.8483794020 -0.5004138653 0.0016703276 0.0018161808 0.0016574105 0.0017999960 0.7160921221 -0.6818736783
490585910 0.8467479234 -0.5032493336 0.0017744855 0.0018098085 0.0017670645 0.0017765063 0.7126354133 -0.6841242951
493590417 0.8445289396 -0.5059609555 0.0017268178 0.0017007154 0.0017121637 0.0016724097 0.7115858047 -0.6872125700
496594924 0.8441553186 -0.5078020844 0.0016986571 0.0018674515 0.0016910198 0.0018469085 0.7079306893 -0.6902453183
499599431 0.8424996316 -0.5101566929 0.0017458922 0.0018447352 0.0017260552 0.0017979233 0.7041790078 -0.6925896013
502603938 0.8387343240 -0.5122208268 0.0018408041 0.0018473908 0.0017863780 0.0018056462 0.7004250788 -0.6921732490
505608445 0.8381183391 -0.5127620909 0.0017610707 0.0017645959 0.0017281597 0.0017459010 0.6997096072 -0.6938734845
508612952 0.8369137137 -0.5158629461 0.0017505962 0.0017834598 0.0017267091 0.0017338930 0.6992098823 -0.6965512064
511617459 0.8358259366 -0.5177101288 0.0017547667 0.0017764200 0.0017378881 0.0017334035 0.6964146129 -0.6992886118
514621966 0.8340529976 -0.5204927992 0.0018016216 0.0017552005 0.0017609706 0.0017370488 0.6946696637 -0.7020822877
517626473 0.8329279539 -0.5221774064 0.0017869263 0.0018595868 0.0017651234 0.0018160869 0.6911439899 -0.7048429704
520630980 0.8311514321 -0.5253332421 0.0017850443 0.0017646297 0.0017218451 0.0017361812 0.6878819675 -0.7075151492
523635487 0.8282822118 -0.5279838731 0.0017734053 0.0017746580 0.0017654658 0.0017687821 0.6851114213 -0.7098977710
526639994 0.8263414128 -0.5286253776 0.0018361829 0.0018491340 0.0018126787 0.0018202785 0.6820511230 -0.7116098512
529644501 0.8253876352 -0.5298278206 0.0018666983 0.0017373318 0.0018237688 0.0017164575 0.6801579749 -0.7139645655
532649008 0.8237295595 -0.5319859720 0.0018141003 0.0017230385 0.0017593626 0.0016991054 0.6758579198 -0.7165068020
535653515 0.8229519486 -0.5353629255 0.0018175999 0.0017843072 0.0017835608 0.0017342255 0.6747890330 -0.7164280766
538658022 0.8222727008 -0.5365723813 0.0017163075 0.0017637597 0.0017021783 0.0017274561 0.6720066063 -0.7193580072
541662529 0.8197093626 -0.5399285212 0.0017733852 0.0017708952 0.0017371851 0.0017568048 0.6709594975 -0.7210072426
544667036 0.8182369114 -0.5430903690 0.0018961385 0.0017985756 0.0018552817 0.0017531277 0.6681442292 -0.7256265635
547671543 0.8159950648 -0.5449066117 0.0018175367 0.0017138372 0.0017974184 0.0016810324 0.6646801893 -0.7278687341
550676050 0.8138591610 -0.5448178373 0.0018195021 0.0019399201 0.0018037459 0.0018912313 0.6589178855 -0.7272115248
553680557 0.8121042910 -0.5460406926 0.0018586232 0.0017905793 0.0018217233 0.0017621645 0.6602097949 -0.7287867946
556685064 0.8130096721 -0.5487685973 0.0019275042 0.0017179525 0.0019074120 0.0016910355 0.6583304592 -0.7316973535
559689571 0.8111112677 -0.5513075907 0.0018625952 0.0017690257 0.0018583033 0.0017352102 0.6573346963 -0.7340800932
562694078 0.8112142334 -0.5535633566 0.0018869192 0.0017561860 0.0018463979 0.0016993356 0.6545610088 -0.7377984049
565698585 0.8074859115 -0.5571710908 0.0018742903 0.0017430762 0.0018363200 0.0016967104 0.6507915233 -0.7402865603
568703092 0.8059140352 -0.5592416762 0.0018371056 0.0017455189 0.0017960300 0.0016841959 0.6491682549 -0.7426626294
571707599 0.8046547976 -0.5599186659 0.0018878616 0.0017239723 0.0018257401 0.0016894481 0.6452513468 -0.7448525278
574712106 0.8009757181 -0.5611918348 0.0019483187 0.0017403557 0.0019022398 0.0017059153 0.6413750821 -0.7455341406
577716613 0.8013189837 -0.5628923197 0.0018568656 0.0016662944 0.0018019388 0.0016385523 0.6420146648 -0.7472127450
580721120 0.7996835087 -0.5663175525 0.0019323373 0.0017367578 0.0018922339 0.0016942537 0.6370622148 -0.7500109898
583725627 0.7995812989 -0.5676677425 0.0019832608 0.0017024030 0.0019016280 0.0016604429 0.6327521038 -0.7521216280
586730134 0.7957851314 -0.5706276752 0.0018168350 0.0017312257 0.0017759956 0.0016931544 0.6310361283 -0.7529726773
589734641 0.7954650780 -0.5723422184 0.0019560684 0.0017508069 0.0019028835 0.0017068632 0.6300254228 -0.7520605898
592739148 0.7931669896 -0.5746848709 0.0019085313 0.0016908206 0.0018311597 0.0016709442 0.6278913838 -0.7573860290
595743655 0.7890881602 -0.5772267366 0.0019346439 0.0016974270 0.0018829063 0.0016623542 0.6232732728 -0.7603980383
598748162 0.7881817571 -0.5783541990 0.0019147752 0.0016523055 0.0018330909 0.0016401835 0.6203236168 -0.7611989854
601752669 0.7892310253 -0.5800209991 0.0018001655 0.0017178123 0.0017390378 0.0016857052 0.6184475049 -0.7607450196
604757176 0.7864189816 -0.5828445510 0.0018654063 0.0018623736 0.0018030135 0.0018190299 0.6175658033 -0.7636907403
607761683 0.7853571187 -0.5856665909 0.0020512986 0.0017324317 0.0019848771 0.0016839831 0.6163278159 -0.7681076422
610766190 0.7845214048 -0.5856951347 0.0019946126 0.0016403183 0.0019289801 0.0016089725 0.6149137656 -0.7686535946
613770697 0.7810848473 -0.5888070284 0.0019745347 0.0016688715 0.0019140993 0.0016379298 0.6108506637 -0.7719407648
616775204 0.7791494508 -0.5916273437 0.0019725163 0.0016353721 0.0018968790 0.0016095033 0.6074030355 -0.7747300309
619779711 0.7771075829 -0.5933997817 0.0019934568 0.0016217679 0.0019036364 0.0016167441 0.6043112696 -0.7769189598
622784218 0.7745665126 -0.5945578270 0.0019344239 0.0016762905 0.0018665022 0.0016200366 0.6001803564 -0.7767602026
625788725 0.7749272721 -0.5959583791 0.0020215975 0.0016600680 0.0019272474 0.0016123442 0.6002055585 -0.7795034712
628793232 0.7724569700 -0.5993925439 0.0019438383 0.0015625694 0.0019076792 0.0015290005 0.5957658492 -0.7819209467
631797739 0.7706120438 -0.6011438361 0.0018425531 0.0017471709 0.0017616945 0.0016919802 0.5911274966 -0.7839427825
634802246 0.7677235769 -0.6032393838 0.0020271764 0.0017530946 0.0019389056 0.0017199087 0.5885817014 -0.7834758340
637806753 0.7681940287 -0.6038649461 0.0021487935 0.0018223398 0.0020507626 0.0017858942 0.5866118240 -0.7842790326
640811260 0.7648176307 -0.6076434967 0.0021373849 0.0016606847 0.0020523434 0.0016377464 0.5874327215 -0.7865177230
643815767 0.7616519595 -0.6105868679 0.0021140797 0.0016074630 0.0020440617 0.0015989743 0.5818626829 -0.7917884525
646820274 0.7602477100 -0.6112114525 0.0021599939 0.0015920260 0.0020705201 0.0015681029 0.5788920347 -0.7927197707
649824781 0.7604199998 -0.6117161507 0.0020905094 0.0015408416 0.0020033016 0.0015170962 0.5773104126 -0.7919434201
652829288 0.7578496405 -0.6149472281 0.0020146723 0.0015144408 0.0019344007 0.0015198936 0.5744323744 -0.7956002352
655833795 0.7552983894 -0.6171896367 0.0019899430 0.0015619462 0.0018916340 0.0015320306 0.5720365425 -0.7978235208
658838302 0.7534045850 -0.6205304514 0.0020467470 0.0015690722 0.0019854484 0.0015500503 0.5702718622 -0.8007372924
661842809 0.7520470473 -0.6214863618 0.0021107414 0.0015040576 0.0020311882 0.0014884376 0.5667901234 -0.8027714815
664847316 0.7504661137 -0.6245149144 0.0021075645 0.0014715597 0.0020029268 0.0014801442 0.5636451141 -0.8052946454
667851823 0.7483716106 -0.6266755821 0.0021210865 0.0014103774 0.0020293453 0.0014247437 0.5609838926 -0.8075239496
670856330 0.7453626797 -0.6275711778 0.0020770641 0.0014034191 0.0019706840 0.0013665087 0.5564215554 -0.8086167427
673860837 0.7467046366 -0.6288316581 0.0019740208 0.0014101097 0.0018588777 0.0013922594 0.5561735206 -0.8097964567
676865344 0.7432813388 -0.6323588563 0.0020768496 0.0014486693 0.0019820025 0.0014663852 0.5522046798 -0.8133377493
679869851 0.7415609809 -0.6349779499 0.0019355036 0.0012783640 0.0018538862 0.0012733223 0.5485596004 -0.8159017155
682874358 0.7395655381 -0.6368760982 0.0017129932 0.0014277710 0.0016072628 0.0013951919 0.5427122846 -0.8153262059
685878865 0.7381963654 -0.6386193331 0.0017682752 0.0019475867 0.0016490113 0.0019191845 0.5431237809 -0.8142999138
688883372 0.7360069019 -0.6426851553 0.0022170200 0.0017271986 0.0021092971 0.0017112643 0.5439370659 -0.8160640024
691887879 0.7335197801 -0.6441771938 0.0023309204 0.0015368858 0.0021860740 0.0015329023 0.5413024345 -0.8218512176
694892386 0.7319101563 -0.6450432156 0.0021742826 0.0013863115 0.0020664858 0.0013685865 0.5378925552 -0.8241189290
697896893 0.7299572614 -0.6479493852 0.0021408123 0.0014982026 0.0020330599 0.0014919878 0.5338608483 -0.8256474460
# HZ S RI R 50
700901400 0.7283788273 -0.6500151955 0.0023258611 0.0014316541 0.0021958436 0.0014401893 0.5331494737 -0.8268302339
703905907 0.7269875078 -0.6516555056 0.0023267265 0.0012517949 0.0022035270 0.0012806783 0.5295254830 -0.8303813464
706910414 0.7241098853 -0.6540246804 0.0022334701 0.0012233088 0.0020773548 0.0012485882 0.5269601910 -0.8325087854
709914921 0.7224531306 -0.6562211739 0.0022017969 0.0012761162 0.0020797881 0.0012982288 0.5239683025 -0.8342365488
712919428 0.7227087167 -0.6577928537 0.0023537751 0.0010811605 0.0022593378 0.0011686489 0.5205450990 -0.8367408356
715923935 0.7179392443 -0.6617564549 0.0021760106 0.0012927195 0.0020613084 0.0012943302 0.5149987685 -0.8395638342
718928442 0.7146457928 -0.6641709347 0.0023464008 0.0013612385 0.0021756970 0.0013807526 0.5118709152 -0.8399892976
721932949 0.7141428761 -0.6631897009 0.0023513347 0.0010898591 0.0022020730 0.0011089240 0.5112066356 -0.8394314368
724937456 0.7120373329 -0.6654810604 0.0021933525 0.0009731025 0.0020522896 0.0010198974 0.5091742077 -0.8421530131
727941963 0.7106106397 -0.6684346264 0.0022421304 0.0010648366 0.0020931475 0.0011244578 0.5046051501 -0.8461279863
730946470 0.7056049667 -0.6709641934 0.0023169523 0.0008826695 0.0021952144 0.0009410504 0.4990495846 -0.8473697713
733950977 0.7067526232 -0.6732104563 0.0019823509 0.0007543497 0.0018271935 0.0008111293 0.4969767262 -0.8460257700
736955484 0.7032759890 -0.6770463379 0.0020098082 0.0011759482 0.0018304283 0.0012544587 0.4954901216 -0.8456922418
739959991 0.6981050924 -0.6779150854 0.0021322900 0.0010375557 0.0019907855 0.0011161842 0.4938816996 -0.8516090586
742964498 0.6951873658 -0.6797119851 0.0023255786 0.0008442345 0.0021902456 0.0009420600 0.4901214974 -0.8540668856
745969005 0.6980375004 -0.6788658943 0.0021448635 0.0007288517 0.0020040771 0.0008625624 0.4870969878 -0.8563986649
748973512 0.6947762377 -0.6832030428 0.0021364072 0.0007149128 0.0020106138 0.0008693147 0.4826501969 -0.8581577145
751978019 0.6911467043 -0.6865269359 0.0022205713 0.0006835234 0.0020731301 0.0008425633 0.4788987771 -0.8606083544
754982526 0.6883028908 -0.6904376897 0.0020912591 0.0004819292 0.0020034189 0.0006268145 0.4742810721 -0.8635626254
757987033 0.6852196632 -0.6923169347 0.0020366862 0.0004450977 0.0019784886 0.0006226501 0.4700700461 -0.8653531979
760991540 0.6792215654 -0.6950324747 0.0019663826 0.0002535177 0.0019122392 0.0004117532 0.4639032681 -0.8682902340
763996047 0.6766966939 -0.6966546306 0.0016537308 0.0002274008 0.0015990216 0.0003781272 0.4582205490 -0.8692799651
767000554 0.6747322591 -0.6977053490 0.0014487218 0.0006426973 0.0013864622 0.0008030148 0.4539401967 -0.8693510831
770005061 0.6725286591 -0.7008629339 0.0019715566 0.0006926225 0.0019526469 0.0008477313 0.4516636121 -0.8668089756
773009568 0.6697386257 -0.7051053221 0.0020892539 0.0002575511 0.0020655739 0.0004309467 0.4510907671 -0.8722689634
776014075 0.6670395526 -0.7078062513 0.0016577020 -0.0001234351 0.0016567244 0.0000166752 0.4445066826 -0.8779544421
779018582 0.6625652768 -0.7122406005 0.0014130376 0.0003878037 0.0014304435 0.0005436562 0.4372562240 -0.8792146092
782023089 0.6583742497 -0.7137208177 0.0017885278 0.0001152178 0.0018427998 0.0002220874 0.4351916181 -0.8786445173
785027596 0.6542045245 -0.7168086554 0.0015717227 -0.0002208195 0.0016470185 -0.0000932409 0.4311875294 -0.8822365591
788032103 0.6509581641 -0.7170750671 0.0012840093 -0.0002333104 0.0013201529 -0.0001241754 0.4266345691 -0.8851068574
791036610 0.6461578178 -0.7182951770 0.0011548903 -0.0001359780 0.0012198207 -0.0000528643 0.4208886935 -0.8880881997
794041117 0.6462513465 -0.7237172798 0.0010668320 -0.0001156426 0.0011353433 -0.0000339867 0.4138053199 -0.8917341940
797045624 0.6397525831 -0.7298102973 0.0011523531 -0.0000516251 0.0012199466 0.0000376613 0.4077947127 -0.8936736410
800050131 0.6333829382 -0.7336162224 0.0012811121 -0.0004551713 0.0013713844 -0.0004048133 0.4016979241 -0.8957915855
803054638 0.6272042088 -0.7344467315 0.0006801431 -0.0008210342 0.0007464332 -0.0007980886 0.3950341789 -0.8974636701
806059145 0.6227301925 -0.7394380941 0.0001545895 -0.0003769464 0.0002110152 -0.0003150498 0.3899162120 -0.9023404793
809063652 0.6202843922 -0.7409585921 0.0005124138 -0.0001240371 0.0005116772 -0.0000609280 0.3802473662 -0.9065211723
812068159 0.6149095678 -0.7432166523 0.0003066787 -0.0007620451 0.0003256335 -0.0007350877 0.3688954723 -0.9066414154
815072666 0.6128102392 -0.7486680977 -0.0004804018 -0.0010506268 -0.0004249114 -0.0010293626 0.3571818911 -0.9032833012
818077173 0.6054067626 -0.7560732350 -0.0010790077 0.0000522209 -0.0010143152 0.0000877739 0.3652542045 -0.9029072209
821081680 0.5949095451 -0.7599694926 -0.0004312782 0.0007796294 -0.0004140719 0.0007997870 0.3576757216 -0.9117297589
824086187 0.5880401715 -0.7579930238 -0.0002432903 0.0000710875 -0.0001652878 0.0000868306 0.3472368935 -0.9200227375
827090694 0.5816454199 -0.7659656872 -0.0006790993 0.0002081224 -0.0006821081 0.0002462560 0.3348085332 -0.9226937077
830095201 0.5775016602 -0.7689702937 -0.0004463502 0.0011792953 -0.0004558321 0.0012086386 0.3256242813 -0.9254058036
833099708 0.5745891318 -0.7695660978 0.0000958360 0.0001052683 0.0001079833 0.0001419110 0.3176349041 -0.9299034022
836104215 0.5664943285 -0.7810280740 -0.0003927372 0.0000021619 -0.0003744265 0.0000196022 0.3017432209 -0.9356248950
839108722 0.5544760547 -0.7893269709 0.0000582464 0.0002183176 0.0000914726 0.0002611357 0.2854528929 -0.9402999339
842113229 0.5413423157 -0.7954048839 0.0000260231 -0.0008126894 0.0000205164 -0.0007814743 0.2678938390 -0.9429049313
845117736 0.5306953958 -0.7935795218 -0.0012736041 -0.0008306408 -0.0012855521 -0.0008239719 0.2463804020 -0.9370411272
848122243 0.5174401972 -0.7997076676 -0.0013478861 -0.0003717235 -0.0013280247 -0.0003480901 0.2412929221 -0.9252034058
851126750 0.5112334340 -0.8064163090 -0.0011019974 -0.0013999231 -0.0011363972 -0.0013869192 0.2311837783 -0.9304963649
854131257 0.5015311579 -0.8175447616 -0.0031703193 -0.0006706129 -0.0031899574 -0.0006692151 0.2232017352 -0.9545697428
857135764 0.4839290776 -0.8289924910 -0.0023275478 0.0011491292 -0.0023183455 0.0011847756 0.1753716167 -0.9533537575
860140271 0.4636110834 -0.8406463377 -0.0004461768 -0.0004779277 -0.0004782823 -0.0004566584 0.1648450496 -0.9383502224
863144778 0.4347065859 -0.8486112271 -0.0019542158 -0.0024864020 -0.0019872434 -0.0024695728 0.1560187642 -0.9292219517
866149285 0.4106133150 -0.8473286278 -0.0048621701 -0.0011929863 -0.0049020202 -0.0011770173 0.1521733254 -0.9538735533
869153792 0.4044602811 -0.8370215095 -0.0040207091 0.0001821704 -0.0040324168 0.0002375225 0.1054792243 -0.9753353584
872158299 0.3652505809 -0.8702554700 -0.0031497386 0.0003032563 -0.0031647316 0.0003527458 0.0575978502 -0.9768607890
875162806 0.3449086157 -0.8752377620 -0.0024426914 -0.0009333841 -0.0024292189 -0.0008835120 0.0014492456 -0.9787834881
878167313 0.2914215204 -0.9050018147 -0.0051838302 -0.0018019200 -0.0052552209 -0.0017142447 -0.0632413525 -0.9710408775
881171820 0.2253475954 -0.8971337340 -0.0038506335 0.0002791678 -0.0038810147 0.0003590438 -0.1468316900 -0.9620974565
884176327 0.1616492122 -0.9077344820 -0.0018901078 0.0007075909 -0.0018540232 0.0007454820 -0.2644639298 -0.9320987062
887180834 0.0502112742 -0.8856137838 -0.0036000458 0.0044144061 -0.0035085171 0.0044990257 -0.4123828896 -0.8650664255
890185341 -0.0856197341 -0.8210027687 0.0061146033 0.0574613698 0.0066183791 0.0559156705 -0.5405197088 -0.3873409284
893189848 -0.2286770002 -0.7508564839 0.1621254922 0.0520187543 0.1579258233 0.0483045221 -0.4404367085 -0.3429161854
896194355 -0.3799610342 -0.5659333928 0.2875657029 -0.3573423821 0.2893101094 -0.3499118558 -0.2164379868 -0.4264484685
899198862 -0.0075444175 -0.0364665285 -0.4179107689 -0.6964841108 -0.4163959515 -0.6976495805 -0.0516356397 -0.0437701787
902203369 0.1927641519 -0.4124433601 -0.7471424526 -0.1082880488 -0.7461494166 -0.1069452173 0.1000849604 -0.4274745108
905207876 -0.0226386571 -0.4443494572 -0.7010564773 0.3165705728 -0.6971509686 0.3175189602 -0.1660375917 -0.4266632301
908212383 -0.1173879746 -0.2076648173 -0.4589990958 0.7317201214 -0.4640181378 0.7059889083 -0.2366019237 -0.1340450866
911216890 0.0978196372 0.0137887959 0.0417033970 0.8918903983 0.0405061043 0.8893638632 0.0525667232 0.0590494880
914221397 0.3439954472 -0.0969569063 0.4583549181 0.6959539639 0.4569504615 0.6949455017 0.3121194187 -0.0859159951
917225904 0.3597166719 -0.2783327230 0.6728526626 0.4137956136 0.6718967391 0.4141633342 0.3232585660 -0.2968875882
920230411 0.2053230270 -0.3546319488 0.7842695129 0.0967576969 0.7830572149 0.0955462796 0.1548504741 -0.3817669263
923234918 0.0306847779 -0.2128680874 0.7729831538 -0.2676320798 0.7727674899 -0.2673687588 -0.0264258675 -0.2582324971
926239425 0.0366534830 0.0212104130 0.5506377358 -0.6826865701 0.5520226279 -0.6796818534 -0.0131133824 0.0295419026
929243932 0.2836240756 0.1107737106 0.0293652569 -0.8200333621 0.0316387949 -0.8197849416 0.2680144373 0.1063430904
932248439 0.3525888546 -0.0439007109 -0.4383381637 -0.6398419775 -0.4351277740 -0.6409645746 0.3607783003 -0.0360138842
935252946 0.0236856140 0.1193646071 -0.7269217226 -0.0334661631 -0.7341850467 -0.0436125932 0.2172968103 0.1013363410
938257453 0.5093714336 0.5318612458 -0.1944311717 0.2916717666 -0.1958432838 0.3011156825 0.6455809272 0.1689694364
941261960 0.7987177430 0.3135865908 0.0631770650 0.1718979152 0.0656991690 0.1723787427 0.6649183079 -0.0417737104
944266467 0.9303707105 0.1594825301 0.0062264363 0.0116655169 0.0065171926 0.0114295463 0.8544015115 0.0204882718
947270974 0.9549433606 0.0045156800 -0.0005514491 0.0097724679 -0.0003539651 0.0098171858 0.8858231390 -0.2074443028
950275481 0.9509846150 -0.1027865229 0.0008588411 0.0040688770 0.0009523741 0.0040963015 0.8707621593 -0.3089308975
953279988 0.9338256021 -0.1835047611 -0.0008998283 -0.0001086262 -0.0009076613 -0.0000699507 0.8156139777 -0.3774441748
956284495 0.9104562814 -0.2365386020 -0.0014741259 -0.0019668159 -0.0014747129 -0.0019278598 0.7943890771 -0.4018382772
959289002 0.8894743483 -0.2768801520 -0.0018267567 -0.0033801766 -0.0018736409 -0.0033107739 0.7842488575 -0.4405937813
962293509 0.8752449950 -0.3007032150 -0.0036165747 -0.0035512735 -0.0036801207 -0.0034553055 0.7420463364 -0.4919795955
965298016 0.8551796840 -0.3257300872 -0.0026105814 -0.0038955632 -0.0026347855 -0.0037848980 0.7418758937 -0.5110007184
968302523 0.8508256425 -0.3523981554 -0.0039013882 -0.0021211082 -0.0039531280 -0.0020891412 0.7149886959 -0.5149529864
971307030 0.8128701796 -0.3909162499 -0.0024764972 -0.0016164938 -0.0025459881 -0.0015917951 0.7149137962 -0.5379089087
974311537 0.8278780788 -0.3153583414 -0.0029664690 -0.0024319574 -0.0030954385 -0.0023384713 0.7050705627 -0.5681394648
977316044 0.8532717476 -0.3734075193 -0.0049574507 -0.0020028583 -0.0049297106 -0.0019029539 0.6670918942 -0.5838732720
980320551 0.8330106524 -0.3947619237 -0.0021071243 -0.0011478912 -0.0020791101 -0.0010478669 0.6935060929 -0.5813623761
983325058 0.8279790541 -0.4128931620 -0.0011148863 -0.0023485030 -0.0010751318 -0.0022901099 0.6796156984 -0.5896255868
986329565 0.8193625582 -0.4263597004 -0.0023803789 -0.0031674951 -0.0023504102 -0.0031323236 0.6514148593 -0.6204715246
989334072 0.8177012160 -0.4347562482 -0.0017579123 -0.0020115930 -0.0017718121 -0.0020081415 0.6484644546 -0.5966103766
992338579 0.8109919501 -0.4423987605 -0.0004459996 -0.0023682058 -0.0004059996 -0.0022585840 0.6471195186 -0.5880536291
995343086 0.8074032451 -0.4525289268 -0.0028255021 -0.0028676030 -0.0027143601 -0.0028347396 0.6565922307 -0.6012680561
998347593 0.7957570105 -0.4401396612 -0.0019639756 -0.0007399004 -0.0019927998 -0.0007698306 0.6546054455 -0.6006099909
1001352100 0.7865491512 -0.4598533806 -0.0000454080 0.0009518261 -0.0000684086 0.0010107406 0.6538416200 -0.6025723547
1004356607 0.7944223125 -0.4627794178 -0.0030792059 -0.0009946734 -0.0030293583 -0.0010451803 0.6296440969 -0.6102059053
1007361114 0.7909476240 -0.4662908976 -0.0017871065 -0.0003787125 -0.0018362545 -0.0004115499 0.6377939078 -0.6221687673
1010365621 0.7837845969 -0.4821746101 -0.0007968694 -0.0002842313 -0.0008244604 -0.0002913175 0.6373244025 -0.6173862747
1013370128 0.7850005690 -0.4955180503 -0.0007751423 -0.0002208934 -0.0007902347 -0.0002135632 0.6216089500 -0.6441747384
1016374635 0.7731387546 -0.4947070038 0.0001720349 0.0012384268 0.0000857405 0.0011912975 0.6148252784 -0.6559916255
1019379142 0.7575324220 -0.5010787886 0.0024518088 -0.0003151092 0.0024212409 -0.0002264439 0.6138311173 -0.6551858094
1022383649 0.7607885299 -0.5068766697 -0.0024326936 0.0012849646 -0.0023787148 0.0011803389 0.6123351413 -0.6505478489
1025388156 0.7653426238 -0.4997290491 -0.0018919092 0.0012479093 -0.0018855020 0.0011670735 0.6153462285 -0.6631441496
1028392663 0.7644605752 -0.5015142644 0.0023523694 0.0003140098 0.0022979744 0.0003605723 0.6217214906 -0.6492787106
1031397170 0.7607528394 -0.4925922678 -0.0006872578 -0.0013394142 -0.0006734524 -0.0013113362 0.6081740439 -0.6769484503
1034401677 0.7580734085 -0.4885713715 0.0001461401 -0.0020841198 0.0001584309 -0.0020126307 0.6096750485 -0.6587545827
1037406184 0.7506267136 -0.5132372658 -0.0023425181 0.0038602488 -0.0025189812 0.0036197148 0.5907204863 -0.6603319071
1040410691 0.7704281791 -0.5045273408 0.0001268169 -0.0000294828 0.0000542272 0.0000674164 0.6053414999 -0.6729698441
1043415198 0.7656295199 -0.4975434469 0.0015437418 -0.0008272297 0.0015664739 -0.0007568374 0.6131039194 -0.6516089051
1046419705 0.7579909684 -0.5092607872 -0.0018341007 -0.0010280529 -0.0017971422 -0.0010306300 0.5935296585 -0.6898253593
1049424212 0.7443578776 -0.5344463700 0.0007323719 -0.0009515842 0.0006862024 -0.0008883688 0.5862228752 -0.6849045689
1052428719 0.7612607095 -0.5235622437 -0.0020375013 -0.0008832480 -0.0019436868 -0.0008502567 0.5522410449 -0.6750402431
1055433226 0.7417788871 -0.5101498004 -0.0012282212 -0.0002007070 -0.0012024946 -0.0002043501 0.5933026153 -0.6813098617
1058437733 0.7424613911 -0.5269446632 -0.0047690413 0.0014780161 -0.0047599083 0.0012709756 0.5921936546 -0.6599404285
1061442240 0.7585812560 -0.5262164786 -0.0008717448 0.0012590886 -0.0008670379 0.0011904397 0.5919854351 -0.6938985297
1064446747 0.7559067416 -0.5327093269 -0.0024709812 0.0048840297 -0.0025180947 0.0047681882 0.6014690071 -0.6793708053
1067451254 0.7259318172 -0.5359205961 0.0022386101 0.0025460706 0.0020463173 0.0025255801 0.5612427249 -0.7011771409
1070455761 0.7424862701 -0.5118550428 -0.0014412913 0.0044093376 -0.0014554232 0.0043214212 0.5861077041 -0.6937685381
1073460268 0.7564990267 -0.5134448782 0.0007946952 -0.0016094470 0.0008334167 -0.0015811853 0.5769183568 -0.6774512505
1076464775 0.7600019337 -0.5342226242 0.0008162062 0.0024569169 0.0007466136 0.0023639232 0.5890514085 -0.6937442891
1079469282 0.7468059947 -0.5426253577 0.0006358975 -0.0000358220 0.0006005375 -0.0000195502 0.5818214977 -0.6978943583
1082473789 0.7380607841 -0.5553428266 0.0006099873 0.0028068077 0.0004649953 0.0027042875 0.5612877905 -0.6997487155
1085478296 0.7292410330 -0.5518729064 -0.0001129374 -0.0018221979 -0.0000875224 -0.0018038694 0.5831986954 -0.6953905720
1088482803 0.7371240019 -0.5216600429 0.0009826709 0.0017017483 0.0008679664 0.0017016046 0.5584866946 -0.6948785748
1091487310 0.7212200964 -0.5515518019 -0.0004919566 -0.0003013959 -0.0004943524 -0.0003536355 0.5762607308 -0.6932470943
1094491817 0.7438162786 -0.5248526390 -0.0003706856 0.0005162400 -0.0004117074 0.0004906904 0.5597705809 -0.6953091017
1097496324 0.7240375677 -0.5525466471 -0.0008195489 0.0006784707 -0.0008702353 0.0006516809 0.5646486719 -0.7041228345
1100500831 0.7413813032 -0.5435369426 -0.0010035701 0.0004212076 -0.0009362399 0.0003844326 0.5568704151 -0.7007173119
1103505338 0.7199077253 -0.5506164560 -0.0019845085 0.0006033959 -0.0020102701 0.0004970237 0.5645809311 -0.7086798923
1106509845 0.7455496514 -0.5444888100 -0.0013458787 0.0005680522 -0.0012966447 0.0005441303 0.5729309900 -0.6940724316
1109514352 0.7192501864 -0.5480895372 0.0008918179 0.0003859089 0.0008378185 0.0003511035 0.5738326303 -0.7070648189
1112518859 0.7330876282 -0.5505383664 -0.0009886179 0.0010197828 -0.0010069449 0.0009768688 0.5696826250 -0.7090933377
1115523366 0.7194438034 -0.5561211531 0.0001339070 0.0024959471 0.0000557108 0.0024057528 0.5698736074 -0.6993646160
1118527873 0.7327437641 -0.5509812651 -0.0002030913 0.0003067982 -0.0002316835 0.0002778554 0.5669249904 -0.7045798740
1121532380 0.7155670517 -0.5651571613 0.0015014663 0.0024466577 0.0013659378 0.0024527652 0.5517987946 -0.7142825982
1124536887 0.7240453825 -0.5554423251 0.0011665891 0.0017362346 0.0010390068 0.0017565829 0.5657913835 -0.7196113241
1127541394 0.7236362028 -0.5645759106 0.0010608238 0.0026416586 0.0009383198 0.0025923040 0.5667438679 -0.7244484908
1130545901 0.7216684236 -0.5632804119 0.0007481300 0.0014475753 0.0006358364 0.0014216717 0.5611447658 -0.7077007320
1133550408 0.7261155032 -0.5674403579 -0.0013168303 0.0014835265 -0.0013428946 0.0013760816 0.5564800583 -0.7264798831
1136554915 0.7279187636 -0.5585253026 0.0006770821 0.0007411605 0.0006128905 0.0006878128 0.5625276128 -0.7242815263
1139559422 0.7283223816 -0.5659920176 -0.0002219615 0.0002733759 -0.0002667782 0.0002449103 0.5576072257 -0.7083341550
1142563929 0.7072641547 -0.5606603740 0.0003222965 0.0031552717 0.0001728878 0.0031313960 0.5419553015 -0.7191025123
1145568436 0.7248724497 -0.5546969737 0.0011371997 -0.0001377518 0.0010988647 -0.0001103549 0.5438034874 -0.7309064043
1148572943 0.7153669724 -0.5775421840 -0.0019314219 0.0016959625 -0.0019412976 0.0015778003 0.5533742378 -0.7263733118
1151577450 0.7145216826 -0.5693871600 0.0016591431 0.0030070606 0.0015066372 0.0029643001 0.5561391601 -0.7209475202
1154581957 0.7241929329 -0.5746503481 0.0002866088 0.0009188538 0.0002078874 0.0009049289 0.5433102978 -0.7142727482
1157586464 0.7132543238 -0.5604032790 0.0003633423 0.0029454935 0.0002042804 0.0028867160 0.5561719879 -0.7196393116
1160590971 0.7221135922 -0.5681609811 0.0021870582 0.0020379691 0.0019886881 0.0020644401 0.5469335151 -0.7282483995
1163595478 0.7050562194 -0.5776252520 -0.0002417053 0.0002619769 -0.0002702024 0.0002374997 0.5522559574 -0.7288469668
1166599985 0.7154767910 -0.5659701959 0.0016031626 0.0014888356 0.0014989976 0.0015283224 0.5537194344 -0.7283339996
1169604492 0.7168138713 -0.5826853787 0.0019340101 0.0014924445 0.0018353434 0.0015346033 0.5457684344 -0.7241448569
1172608999 0.7098609123 -0.5693089776 -0.0011586728 0.0002102527 -0.0011184769 0.0001514948 0.5409353526 -0.7411989554
1175613506 0.7205986579 -0.5734504795 -0.0007146450 0.0004934192 -0.0007552390 0.0004703886 0.5532104119 -0.7380758988
1178618013 0.7020826914 -0.5750482057 0.0023776465 0.0023274318 0.0021841893 0.0023415878 0.5523660434 -0.7244347649
1181622520 0.7169434053 -0.5682672947 -0.0014009338 0.0010561485 -0.0014802176 0.0008941016 0.5237249425 -0.7257015888
1184627027 0.7117053349 -0.5817982319 -0.0021208679 0.0013170511 -0.0021903602 0.0012037596 0.5281400206 -0.7480539266
1187631534 0.7067020462 -0.5751533898 0.0036150031 0.0031120651 0.0033314054 0.0031881805 0.5544927305 -0.7347505345
1190636041 0.7162234823 -0.5824285185 -0.0021659064 0.0001798113 -0.0022142352 0.0000306889 0.5413976248 -0.7182737991
1193640548 0.7033517209 -0.5783711846 -0.0025598192 0.0021410225 -0.0026035456 0.0019783216 0.5141005209 -0.7283968965
1196645055 0.7069860594 -0.5741685654 0.0057201238 0.0021801582 0.0054127770 0.0023720016 0.5436135055 -0.7443554494
1199649562 0.7041631198 -0.5881693497 -0.0033211399 0.0008961380 -0.0033508529 0.0007178637 0.5456228848 -0.7280256559
1202654069 0.7119320682 -0.5699288147 -0.0019995668 0.0027219213 -0.0020831607 0.0025936861 0.5332248568 -0.7120220719
1205658576 0.7046777678 -0.5814680036 0.0056352380 0.0008687233 0.0053533800 0.0011261935 0.5278159356 -0.7357726276
1208663083 0.6970384627 -0.5810332079 -0.0035825797 0.0008193471 -0.0036102502 0.0006164239 0.5417387929 -0.7397995338
1211667590 0.7138659730 -0.5780280306 -0.0018109928 0.0032661450 -0.0019248982 0.0031070157 0.5366479782 -0.7258280873
1214672097 0.6950852243 -0.5866435349 0.0055119031 0.0013409117 0.0052768085 0.0015738872 0.5362846947 -0.7347760423
1217676604 0.6962007148 -0.5800562303 -0.0032661451 0.0013825504 -0.0033222829 0.0011942548 0.5339233893 -0.7390694929
1220681111 0.7106298753 -0.5829835850 -0.0009271591 0.0030358667 -0.0011021185 0.0029445664 0.5219293940 -0.7387624126
1223685618 0.6788167009 -0.5792851262 0.0061202097 0.0017945256 0.0058862130 0.0020358311 0.5345489656 -0.7423920933
1226690125 0.6920588648 -0.5768346788 -0.0030890568 0.0004088913 -0.0031194716 0.0002563209 0.5351314585 -0.7399027734
1229694632 0.7065894568 -0.5804220117 -0.0008011727 0.0038484053 -0.0010302787 0.0037781085 0.5000046670 -0.7375960180
1232699139 0.6762871409 -0.5610095918 0.0062214907 0.0031203291 0.0058809533 0.0033787849 0.5201024658 -0.7321456556
1235703646 0.6962058726 -0.5811572133 -0.0017538841 0.0002632149 -0.0018228287 0.0001612025 0.5429538376 -0.7330155575
1238708153 0.7000014165 -0.5799367749 0.0002081848 0.0045828061 -0.0001028127 0.0046296877 0.5043708050 -0.7284233997
1241712660 0.6876961740 -0.5571600404 0.0072530547 0.0051352046 0.0068450136 0.0054639304 0.5203320634 -0.7195230419
1244717167 0.6869807492 -0.5871440694 -0.0017708497 0.0000708614 -0.0018907934 -0.0000075863 0.5471197242 -0.7342866055
1247721674 0.6978857393 -0.5686470385 -0.0010947747 0.0052837176 -0.0013767535 0.0051810900 0.4964956115 -0.7262005949
1250726181 0.6914001302 -0.5680113327 0.0074753133 0.0062424333 0.0070697680 0.0065322133 0.5148976709 -0.7116308187
1253730688 0.6870197242 -0.5813612565 -0.0014820742 0.0005000098 -0.0015690634 0.0004280549 0.5552497753 -0.7296226746
1256735195 0.6984533598 -0.5673292727 -0.0005745944 0.0077107082 -0.0009086904 0.0077006006 0.5081810415 -0.6899776925
1259739702 0.6920746183 -0.5844703201 0.0099380600 0.0065054606 0.0095282492 0.0068696247 0.5356454290 -0.7084300502
1262744209 0.6870880286 -0.5739338488 0.0020532483 0.0003091737 0.0019754883 0.0003752433 0.5554003900 -0.7209710651
1265748716 0.7094088813 -0.5636060342 0.0046009080 0.0057785052 0.0042246829 0.0059071114 0.5676200702 -0.7046206118
1268753223 0.6772260641 -0.5911573668 0.0099750566 0.0038275713 0.0095468435 0.0042406898 0.5376712040 -0.7312915270
1271757730 0.6942545568 -0.5745518313 0.0025655660 -0.0024624973 0.0025409168 -0.0023807360 0.5497564579 -0.7147283410
1274762237 0.7024282282 -0.5753579790 0.0013450459 0.0014117875 0.0011735543 0.0013987888 0.5627872048 -0.7280970049
1277766744 0.6793474703 -0.5845358113 0.0080869835 0.0009683268 0.0079051813 0.0013427209 0.5293866145 -0.7450713298
1280771251 0.6929134042 -0.5708147148 0.0021257552 -0.0023537708 0.0021134666 -0.0022350370 0.5425971705 -0.7165238657
1283775758 0.7049288232 -0.5742350170 0.0000347707 0.0002275875 -0.0001357751 0.0002502029 0.5617860365 -0.7223739916
1286780265 0.6932918181 -0.5778848162 0.0066672206 -0.0018041485 0.0065919226 -0.0014822982 0.5263060401 -0.7371505079
1289784772 0.6929888369 -0.5735339093 0.0015821697 -0.0023075929 0.0016050794 -0.0021671626 0.5265089228 -0.7096302264
1292789279 0.7042791771 -0.5555311918 -0.0002464793 -0.0020385393 -0.0003457725 -0.0019874397 0.5610848840 -0.7170760377
1295793786 0.6893713859 -0.5848638170 0.0044967601 -0.0002133943 0.0044152398 0.0000470860 0.5288284800 -0.7310790023
1298798293 0.6842462336 -0.5663206752 0.0013348950 -0.0024985948 0.0013150353 -0.0024100526 0.5252158228 -0.6983824146
1301802800 0.7053516113 -0.5591463114 -0.0012695893 -0.0008992355 -0.0013421834 -0.0009098752 0.5613982799 -0.7127944540
1304807307 0.6864513476 -0.5722005166 0.0017488671 -0.0020367294 0.0017743279 -0.0019068736 0.5501486438 -0.7203891447
1307811814 0.6937972403 -0.5512516735 0.0008875430 -0.0015570307 0.0008798765 -0.0013901714 0.5307503165 -0.6912320171
1310816321 0.7044248405 -0.5558505856 -0.0000627563 0.0004919405 -0.0001935413 0.0005879823 0.5830453318 -0.7101495780
1313820828 0.7032508868 -0.5462245607 0.0010179101 -0.0017624884 0.0010369716 -0.0015722654 0.5503854524 -0.7215811915
1316825335 0.6882775646 -0.5291770546 -0.0007049025 0.0008847151 -0.0008000109 0.0008585061 0.5569027486 -0.6989273572
1319829842 0.7118950389 -0.5361702792 -0.0000962185 -0.0009484213 -0.0001802803 -0.0009068806 0.5671479912 -0.7086297438
1322834349 0.7065241338 -0.5510154138 -0.0008485956 0.0013178250 -0.0010581468 0.0013471406 0.5703405295 -0.7184516754
1325838856 0.7017555950 -0.5530463552 0.0024673093 0.0008278502 0.0023136330 0.0010548626 0.5450639494 -0.7095227032
1328843363 0.7201227772 -0.5440457504 -0.0005260620 0.0008964090 -0.0006481763 0.0009438382 0.5770596600 -0.7058200439
1331847870 0.7218017438 -0.5563852175 0.0014997104 -0.0000241494 0.0013897955 0.0001161957 0.5642369836 -0.7200361173
1334852377 0.7268712125 -0.5489105323 -0.0002658591 -0.0004174872 -0.0002782276 -0.0002900598 0.5640922322 -0.7245080418
1337856884 0.7226086353 -0.5513951638 0.0015054327 0.0007380860 0.0014116047 0.0008915277 0.5636408609 -0.7082527549
1340861391 0.7245449918 -0.5546673473 0.0000837916 -0.0008414880 0.0000614014 -0.0007478150 0.5773463899 -0.7190685981
1343865898 0.7212341411 -0.5556059954 0.0006289784 0.0008153078 0.0004912139 0.0009587982 0.5673331367 -0.7303111285
1346870405 0.7316360198 -0.5546374239 0.0013044356 0.0012375697 0.0012039505 0.0014315249 0.5684902531 -0.7049016716
1349874912 0.7217925964 -0.5464763775 0.0006276886 -0.0008017006 0.0006297782 -0.0006629568 0.5713754725 -0.7200746633
1352879419 0.7314485480 -0.5593924639 0.0006626191 -0.0000437577 0.0005932495 0.0001173623 0.5780410437 -0.7302866909
1355883926 0.7180407449 -0.5540848988 0.0012546753 0.0017993209 0.0011370715 0.0019510004 0.5603873272 -0.7146988774
1358888433 0.7362122301 -0.5547352675 0.0004616197 -0.0003339804 0.0004181907 -0.0001990879 0.5816199595 -0.7162348032
1361892940 0.7294516349 -0.5630702309 -0.0000645042 0.0002160954 -0.0001222057 0.0002962341 0.5799575106 -0.7320080067
1364897447 0.7220743517 -0.5558031768 0.0005592740 0.0011037096 0.0004742279 0.0012757841 0.5623316558 -0.7244410391
1367901954 0.7341059150 -0.5635293650 0.0003115249 0.0005207886 0.0002085411 0.0006092516 0.5757153449 -0.7280439212
1370906461 0.7280011601 -0.5558434034 0.0008029404 -0.0008227379 0.0008003577 -0.0006931948 0.5733165970 -0.7209165020
1373910968 0.7289620364 -0.5653050577 -0.0004040141 0.0009067444 -0.0004695521 0.0010062926 0.5717698117 -0.7322752762
1376915475 0.7229254387 -0.5644352405 0.0011455919 -0.0002587144 0.0011357943 -0.0001021068 0.5688648129 -0.7271624451
1379919982 0.7270678247 -0.5528889071 0.0005813297 -0.0007218205 0.0006148346 -0.0005924466 0.5795666797 -0.7142655024
1382924489 0.7360266723 -0.5688988902 -0.0000640603 0.0005123802 -0.0001182737 0.0006506012 0.5811213109 -0.7334152195
1385928996 0.7262146828 -0.5618111950 0.0011004480 0.0003998622 0.0010737219 0.0005796497 0.5735642552 -0.7293869230
1388933503 0.7314255214 -0.5559094625 0.0004588066 -0.0003690574 0.0004629731 -0.0002281145 0.5726790842 -0.7077790914
1391938010 0.7340861710 -0.5703407682 0.0000119663 0.0000962350 -0.0000068373 0.0002247569 0.5848941696 -0.7324348097
1394942517 0.7276136099 -0.5694620594 0.0002375685 0.0013349935 0.0001701372 0.0014438843 0.5728736938 -0.7334040598
1397947024 0.7377366069 -0.5572562872 0.0001224402 -0.0000576754 0.0000806832 0.0000597681 0.5693539753 -0.7107680502
1400951531 0.7293197904 -0.5699072698 0.0002796360 0.0000295844 0.0002387419 0.0001433820 0.5841037973 -0.7333260040
1403956038 0.7283788822 -0.5738938168 0.0001372324 0.0004455267 0.0001255109 0.0005788156 0.5781382631 -0.7391319438
1406960545 0.7354533476 -0.5618552404 0.0000108123 -0.0006955314 0.0000320940 -0.0006190475 0.5644261737 -0.7228755523
1409965052 0.7274412861 -0.5663128959 0.0006492184 0.0006737744 0.0006071530 0.0008166214 0.5843738142 -0.7297306639
1412969559 0.7304547272 -0.5724133629 0.0002779731 0.0001470586 0.0002675391 0.0002648429 0.5817337057 -0.7370842816
1415974066 0.7336768137 -0.5661420153 0.0004000870 -0.0004797405 0.0004142640 -0.0003625076 0.5688421819 -0.7308605428
1418978573 0.7294194482 -0.5668656491 -0.0001856313 0.0008648794 -0.0002288004 0.0009541739 0.5821567674 -0.7302604127
1421983080 0.7377862454 -0.5683140671 -0.0000470860 0.0002710480 -0.0000616240 0.0003650248 0.5847382276 -0.7326449996
1424987587 0.7363905273 -0.5688430110 0.0001609483 0.0005959138 0.0001524446 0.0006955545 0.5709609876 -0.7376376424
1427992094 0.7337765889 -0.5709926254 -0.0005646765 0.0008821619 -0.0006148122 0.0009960525 0.5802446588 -0.7215561209
1430996601 0.7350229747 -0.5676209078 0.0007641620 0.0000072218 0.0007733709 0.0001334479 0.5843920918 -0.7260973329
1434001108 0.7341732733 -0.5672347756 -0.0004156386 0.0003639881 -0.0004390143 0.0004315043 0.5838294409 -0.7375204605
1437005615 0.7361293662 -0.5663945923 -0.0002944470 0.0001552870 -0.0003396656 0.0002625359 0.5800549341 -0.7291786543
1440010122 0.7354572430 -0.5690596441 0.0000218988 0.0007135984 -0.0001423388 0.0007908484 0.5796665410 -0.7323601604
1443014629 0.7368436438 -0.5706585936 -0.0003532310 0.0001163482 -0.0003910970 0.0001965540 0.5856960015 -0.7290887564
1446019136 0.7321986190 -0.5642981691 -0.0002275996 -0.0001513757 -0.0002252358 -0.0000786405 0.5741317511 -0.7280600227
1449023643 0.7365607925 -0.5693656892 -0.0004796460 0.0010797222 -0.0005013773 0.0011447402 0.5910879741 -0.7259923095
1452028150 0.7342210574 -0.5739221498 0.0004084178 -0.0000192516 0.0003863814 0.0000438594 0.5871955978 -0.7325482301
1455032657 0.7331218015 -0.5713462833 0.0000631910 -0.0000058539 0.0000587690 0.0000860387 0.5799069410 -0.7371542079
1458037164 0.7374309598 -0.5730158923 -0.0001928121 -0.0001790139 -0.0001583834 -0.0000787239 0.5851531846 -0.7267549813
1461041671 0.7360486918 -0.5689783724 0.0001171541 0.0003160914 0.0001187081 0.0003686539 0.5823729091 -0.7294007704
1464046178 0.7345359277 -0.5722295284 -0.0002729746 -0.0001737830 -0.0002429300 -0.0001123285 0.5849140498 -0.7345971840
1467050685 0.7370123573 -0.5665213963 -0.0002964396 -0.0001362684 -0.0002984397 -0.0000689185 0.5812579240 -0.7296240183
1470055192 0.7372319618 -0.5704121376 -0.0005046658 0.0012815414 -0.0005647566 0.0013792948 0.5858098931 -0.7281119074
1473059699 0.7400658309 -0.5703627024 0.0005881132 0.0001637206 0.0005868581 0.0002617744 0.5912729333 -0.7326789267
1476064206 0.7344590800 -0.5692693735 -0.0001403835 -0.0003882720 -0.0001294189 -0.0003230497 0.5823209975 -0.7341639243
1479068713 0.7319182197 -0.5717048559 -0.0004344529 0.0001872176 -0.0004860545 0.0002653645 0.5827371669 -0.7280492289
1482073220 0.7409277049 -0.5692481996 -0.0000601378 0.0007407313 -0.0000551081 0.0007869769 0.5919179078 -0.7306772361
1485077727 0.7301233872 -0.5736497340 0.0004363968 -0.0002857669 0.0004481499 -0.0002119987 0.5856928523 -0.7358291854
1488082234 0.7422351563 -0.5682800698 -0.0010106181 -0.0002526183 -0.0010308078 -0.0002033565 0.5854783705 -0.7289578349
1491086741 0.7365013716 -0.5724903603 -0.0014302749 0.0007496367 -0.0014571718 0.0007723718 0.5847277867 -0.7288332790
1494091248 0.7378544890 -0.5716264306 0.0006051142 0.0009197247 0.0005606879 0.0009786898 0.5877598689 -0.7286216205
1497095755 0.7363045953 -0.5715810976 0.0002048576 -0.0008804282 0.0002223968 -0.0007964618 0.5894235079 -0.7296191695
1500100262 0.7343300536 -0.5666111846 -0.0011311002 -0.0000454142 -0.0011571026 0.0000074239 0.5830585382 -0.7312909477
1503104769 0.7401251928 -0.5722517891 -0.0002631047 0.0012838451 -0.0003016205 0.0013699979 0.5910336263 -0.7306517841
1506109276 0.7350476345 -0.5677097153 0.0006731231 0.0003792156 0.0006647395 0.0004162610 0.5842157782 -0.7345945211
1509113783 0.7365631940 -0.5683860683 -0.0012258304 -0.0008273843 -0.0012400061 -0.0008132968 0.5917552646 -0.7310571971
1512118290 0.7405567147 -0.5717860907 -0.0011812144 0.0006041109 -0.0012510866 0.0006285489 0.5895640229 -0.7321050084
1515122797 0.7407821865 -0.5719257260 0.0000139116 0.0005495629 -0.0002183177 0.0006125030 0.5904569206 -0.7347613124
1518127304 0.7391704342 -0.5691856311 0.0006525989 -0.0004244342 0.0006111366 -0.0003594080 0.5904129858 -0.7272152171
1521131811 0.7365782074 -0.5663343272 -0.0013258670 -0.0002078691 -0.0013223004 -0.0001747753 0.5884186200 -0.7315789845
1524136318 0.7385553555 -0.5702902480 -0.0009107851 0.0009642932 -0.0009534340 0.0009960077 0.5892169563 -0.7301876245
1527140825 0.7319894125 -0.5712029460 0.0002843556 0.0010391345 0.0002515642 0.0011257922 0.5827186021 -0.7280549813
1530145332 0.7390976171 -0.5680608007 0.0001427843 -0.0013823179 0.0001690386 -0.0013140997 0.5911491594 -0.7291835053
1533149839 0.7404728227 -0.5690823467 -0.0014169265 -0.0001045078 -0.0014416029 -0.0000512714 0.5900934358 -0.7326846464
1536154346 0.7374012698 -0.5720519383 -0.0003856195 0.0007840583 -0.0004176741 0.0008373803 0.5861153130 -0.7336613993
1539158853 0.7363714511 -0.5689354178 0.0007489003 0.0002177305 0.0007460545 0.0002763380 0.5897579417 -0.7240084791
1542163360 0.7380378703 -0.5687919538 -0.0011927604 -0.0010215072 -0.0011982100 -0.0009695639 0.5961298934 -0.7282212857
1545167867 0.7415330018 -0.5686693808 -0.0012510776 0.0007415078 -0.0012807319 0.0008232956 0.5890446000 -0.7336964454
1548172374 0.7357993356 -0.5683368008 -0.0001575099 0.0005352071 -0.0001765915 0.0006028753 0.5866435338 -0.7285306479
1551176881 0.7357568717 -0.5693195877 0.0003247828 -0.0001117170 0.0002878721 -0.0000671472 0.5922843760 -0.7232526701
1554181388 0.7367147684 -0.5683630628 -0.0011838032 -0.0004385738 -0.0012183658 -0.0003846716 0.5940733835 -0.7307642014
1557185895 0.7404495647 -0.5713776594 -0.0010254644 0.0007978030 -0.0010433952 0.0008666462 0.5890939944 -0.7339114900
1560190402 0.7338010007 -0.5695846176 -0.0006717209 0.0004213234 -0.0007294359 0.0004524928 0.5884441845 -0.7259959160
1563194909 0.7394879616 -0.5688910737 0.0002692126 -0.0004389656 0.0002598366 -0.0003538442 0.5960746593 -0.7249916746
1566199416 0.7409409121 -0.5680574172 -0.0012304495 -0.0007560590 -0.0012128162 -0.0007122621 0.5979405745 -0.7330889096
1569203923 0.7391389325 -0.5726763595 -0.0009335400 0.0010832708 -0.0010070200 0.0011026215 0.5891337771 -0.7331031617
1572208430 0.7416162350 -0.5656280634 -0.0005410765 0.0006801283 -0.0005695731 0.0007119688 0.5889424688 -0.7219831290
1575212937 0.7381723806 -0.5687566171 -0.0001262836 -0.0007880334 -0.0001040325 -0.0007374057 0.5957135752 -0.7234406422
1578217444 0.7427212282 -0.5665455804 -0.0014724494 -0.0001899887 -0.0015180731 -0.0001726728 0.6014910287 -0.7338087227
1581221951 0.7364581143 -0.5695251982 -0.0005288395 0.0009191061 -0.0005687686 0.0009495055 0.5880972735 -0.7328627612
1584226458 0.7374315293 -0.5662750543 -0.0006121261 0.0003808243 -0.0006297529 0.0003941390 0.5873020676 -0.7233766878
1587230965 0.7397182898 -0.5662816378 -0.0004989116 -0.0003770055 -0.0005787706 -0.0003171148 0.6001233569 -0.7232242517
1590235472 0.7449161459 -0.5674478139 -0.0012427022 -0.0002489584 -0.0012437363 -0.0001615286 0.6009361651 -0.7350603344
1593239979 0.7397317470 -0.5665922895 -0.0005522980 0.0007914943 -0.0006038628 0.0008291462 0.5896688498 -0.7310944895
1596244486 0.7418630465 -0.5677168831 -0.0005749039 0.0003002005 -0.0005875881 0.0003345798 0.5884555657 -0.7251860195
1599248993 0.7400124110 -0.5682100364 -0.0005017660 -0.0003954947 -0.0004959820 -0.0003427498 0.6011915162 -0.7208727979
1602253500 0.7434545935 -0.5652346958 -0.0013337813 -0.0001245216 -0.0013910653 -0.0001229317 0.6038063282 -0.7336065034
1605258007 0.7382495701 -0.5686347006 -0.0007250550 0.0005528319 -0.0007685855 0.0005706031 0.5884108400 -0.7295816145
1608262514 0.7395365623 -0.5654152250 -0.0008059800 0.0002357414 -0.0008496148 0.0002178272 0.5892464919 -0.7210959305
1611267021 0.7401188418 -0.5690274020 -0.0007849392 -0.0005092123 -0.0007875993 -0.0004979079 0.6004324561 -0.7232782731
1614271528 0.7451548684 -0.5686784978 -0.0013548983 0.0000309822 -0.0014027957 0.0000428862 0.6034995193 -0.7347876915
1617276035 0.7403793714 -0.5699506443 -0.0007289854 0.0006651415 -0.0007584838 0.0006829114 0.5938266838 -0.7315885507
1620280542 0.7444384181 -0.5641143789 -0.0009292977 0.0003352859 -0.0009758742 0.0003206837 0.5912115724 -0.7204818460
1623285049 0.7442148645 -0.5673639224 -0.0008252755 -0.0001494366 -0.0009049824 -0.0001392548 0.6071506532 -0.7204861957
1626289556 0.7464179962 -0.5688916359 -0.0013087113 -0.0001420317 -0.0012975275 -0.0001264843 0.6083708942 -0.7332440218
1629294063 0.7360813428 -0.5658658453 -0.0007081986 0.0003282073 -0.0007471657 0.0003708978 0.5882365508 -0.7337351202
1632298570 0.7435862710 -0.5635476459 -0.0009542287 0.0003012236 -0.0010156234 0.0003039046 0.5932260469 -0.7199022068
1635303077 0.7476420597 -0.5631618343 -0.0008613380 -0.0004464425 -0.0009125232 -0.0004058665 0.6103740976 -0.7203056454
1638307584 0.7465223491 -0.5685086390 -0.0013674769 -0.0000522092 -0.0013987792 -0.0000206482 0.6101266597 -0.7310357810
1641312091 0.7402942626 -0.5611173762 -0.0010041399 0.0005727648 -0.0010763291 0.0006222533 0.5947964867 -0.7303354099
1644316598 0.7460572864 -0.5643894814 -0.0010349731 -0.0000212227 -0.0010784769 0.0000034762 0.5949543369 -0.7218278487
1647321105 0.7477949878 -0.5638224949 -0.0008496688 -0.0004548519 -0.0008764898 -0.0004331102 0.6113091996 -0.7167406491
1650325612 0.7479215043 -0.5673296798 -0.0013181871 -0.0001885476 -0.0013275954 -0.0001345296 0.6143092597 -0.7286718204
1653330119 0.7409217730 -0.5627938843 -0.0011809605 0.0005057943 -0.0012444781 0.0005242375 0.5972329209 -0.7355422983
1656334626 0.7495472108 -0.5599179773 -0.0009368183 -0.0000912335 -0.0009900464 -0.0000554628 0.5979766645 -0.7210835666
1659339133 0.7500750088 -0.5610660292 -0.0009601282 -0.0000068687 -0.0010430369 0.0000427737 0.6082572717 -0.7141646015
1662343640 0.7513269706 -0.5663901453 -0.0012306183 -0.0000228295 -0.0012525754 -0.0000360703 0.6175466598 -0.7294584706
1665348147 0.7437102955 -0.5616192257 -0.0012588439 -0.0000426547 -0.0012663955 -0.0000414876 0.6018866343 -0.7353190587
1668352654 0.7479942191 -0.5602914848 -0.0008297215 0.0001004528 -0.0008779526 0.0001327531 0.6019564505 -0.7207283143
1671357161 0.7504072456 -0.5624147114 -0.0013182047 0.0000575272 -0.0013758926 0.0000561510 0.6121970307 -0.7125030593
1674361668 0.7489528903 -0.5684381080 -0.0011212043 -0.0000023442 -0.0012236777 0.0000428559 0.6151605316 -0.7275310895
1677366175 0.7442457516 -0.5630171373 -0.0011675323 -0.0001953536 -0.0011721415 -0.0001745960 0.6049710417 -0.7346795383
1680370682 0.7491549859 -0.5565888818 -0.0011738814 0.0000734826 -0.0012749483 0.0000868026 0.6034594343 -0.7200239334
1683375189 0.7508501032 -0.5609507164 -0.0015601829 0.0000197206 -0.0016073462 0.0000212806 0.6072521198 -0.7119855629
1686379696 0.7541194380 -0.5632039051 -0.0010095717 -0.0000498343 -0.0010621135 -0.0000366916 0.6167356704 -0.7242945988
1689384203 0.7495026162 -0.5618072252 -0.0012268720 -0.0002959271 -0.0012538927 -0.0002402404 0.6147891278 -0.7322163789
1692388710 0.7506665912 -0.5583582414 -0.0011666225 -0.0003716490 -0.0012309864 -0.0003722953 0.6017006740 -0.7238776444
1695393217 0.7551982719 -0.5588553795 -0.0015007187 -0.0001207045 -0.0015043330 -0.0001046583 0.6125252949 -0.7118788071
1698397724 0.7531974091 -0.5661045052 -0.0012972428 -0.0003070022 -0.0013166186 -0.0002891961 0.6199163421 -0.7196028488
1701402231 0.7494992348 -0.5612743434 -0.0011433804 0.0000746371 -0.0011708742 0.0001329591 0.6176728475 -0.7310039512
1704406738 0.7477629867 -0.5520082334 -0.0017755159 0.0000556953 -0.0018419943 0.0000400294 0.6041480831 -0.7229219817
1707411245 0.7534410243 -0.5524256146 -0.0015706791 -0.0002672432 -0.0016243326 -0.0002263471 0.6099340006 -0.7148043032
1710415752 0.7605010582 -0.5594717840 -0.0015468232 -0.0002761643 -0.0015846245 -0.0002506639 0.6245318238 -0.7133608445
1713420259 0.7533575278 -0.5620957350 -0.0011921564 -0.0001794250 -0.0012557956 -0.0001658516 0.6249747217 -0.7288404315
1716424766 0.7528089278 -0.5534989213 -0.0015777517 -0.0005828803 -0.0015802136 -0.0005444760 0.6058720328 -0.7263013885
1719429273 0.7534338792 -0.5540763783 -0.0013374124 0.0001252591 -0.0014095219 0.0001450466 0.6113592944 -0.7135675919
1722433780 0.7587241937 -0.5557931174 -0.0020587650 -0.0000447563 -0.0020743368 -0.0000727415 0.6203407202 -0.7082587799
1725438287 0.7536168306 -0.5639065471 -0.0012714671 -0.0000961605 -0.0013306728 -0.0001245208 0.6305602379 -0.7221172460
1728442794 0.7498047750 -0.5533089200 -0.0012939126 -0.0005436022 -0.0013638217 -0.0004903517 0.6151633539 -0.7294540228
1731447301 0.7561744269 -0.5517425110 -0.0020258245 0.0000316097 -0.0020862280 0.0000505637 0.6089501513 -0.7161595966
1734451808 0.7586249563 -0.5544603227 -0.0022045407 0.0001121824 -0.0022796638 0.0001022323 0.6160081999 -0.7076608275
1737456315 0.7550406824 -0.5623878582 -0.0012306691 0.0000635334 -0.0013116426 0.0000583675 0.6256116887 -0.7159066488
1740460822 0.7513008074 -0.5584558187 -0.0012889081 -0.0004836121 -0.0013372023 -0.0004301771 0.6221672967 -0.7260353879
1743465329 0.7575722984 -0.5483622532 -0.0019285103 -0.0005765443 -0.0019869618 -0.0005463183 0.6129499541 -0.7178080410
1746469836 0.7598041449 -0.5500220936 -0.0023585376 -0.0005799921 -0.0023538760 -0.0005474889 0.6160602691 -0.7084157067
1749474343 0.7634537918 -0.5546735120 -0.0012297200 0.0006093815 -0.0013161613 0.0006228763 0.6304106019 -0.7112180100
1752478850 0.7553368407 -0.5542318985 -0.0012680971 -0.0003481977 -0.0013148687 -0.0003293828 0.6288351237 -0.7210134482
1755483357 0.7584366576 -0.5474327456 -0.0013375177 -0.0009576650 -0.0013645313 -0.0008875182 0.6146826295 -0.7197391726
1758487864 0.7592829544 -0.5507699505 -0.0022921263 -0.0005191816 -0.0023023801 -0.0004662138 0.6184482121 -0.7052725998
1761492371 0.7648092418 -0.5545644744 -0.0017899328 -0.0003449919 -0.0018106849 -0.0003332842 0.6319463659 -0.7070351149
1764496878 0.7582333788 -0.5516647823 -0.0012942328 -0.0000179657 -0.0013569524 0.0000085251 0.6345002062 -0.7174173655
1767501385 0.7525606205 -0.5454657634 -0.0015914183 -0.0009101186 -0.0016391616 -0.0008978159 0.6185576377 -0.7163475903
1770505892 0.7615747639 -0.5435457793 -0.0019888404 -0.0008331274 -0.0019891872 -0.0007957854 0.6185404057 -0.7054305902
1773510399 0.7623209526 -0.5478342994 -0.0017487002 0.0004308247 -0.0018427635 0.0004741430 0.6310652755 -0.7013380348
1776514906 0.7570817166 -0.5563831172 -0.0011902863 0.0005106860 -0.0012726301 0.0005616178 0.6333377567 -0.7137296434
1779519413 0.7575298809 -0.5395335378 -0.0014124447 -0.0008198829 -0.0014762413 -0.0007687786 0.6297692586 -0.7176104185
1782523920 0.7565331045 -0.5421026618 -0.0022587166 -0.0004255358 -0.0023427613 -0.0004297825 0.6213292443 -0.7059763552
1785528427 0.7613525880 -0.5438348201 -0.0025374366 -0.0012793077 -0.0025083517 -0.0012626952 0.6248689592 -0.6993638131
1788532934 0.7675821120 -0.5513613430 -0.0018396056 0.0009616346 -0.0019424709 0.0009553668 0.6398003844 -0.7033296573
1791537441 0.7548935248 -0.5516573763 -0.0010479733 -0.0002297315 -0.0011114967 -0.0001938996 0.6380187407 -0.7146812425
1794541948 0.7553871053 -0.5431789284 -0.0018127139 -0.0013474950 -0.0018261024 -0.0012987781 0.6206904235 -0.7113930814
1797546455 0.7641431489 -0.5388978560 -0.0027193420 0.0000683183 -0.0027972107 -0.0000035291 0.6203093405 -0.7013024019
1800550962 0.7694299159 -0.5424839323 -0.0032508013 0.0000738759 -0.0032976672 -0.0000044298 0.6368637360 -0.6980506442
1803555469 0.7626836431 -0.5481122627 -0.0015990036 0.0000345541 -0.0016387771 0.0000281103 0.6398617429 -0.7082124027
1806559976 0.7585555907 -0.5427500268 -0.0015739531 -0.0006425343 -0.0016134646 -0.0005926397 0.6339277039 -0.7122556666
1809564483 0.7619147590 -0.5401915503 -0.0024305570 -0.0009369552 -0.0024665490 -0.0009304444 0.6234484147 -0.7018805468
1812568990 0.7657182483 -0.5377038666 -0.0028398697 0.0001875275 -0.0029035776 0.0001402250 0.6332801881 -0.7017621357
1815573497 0.7680268504 -0.5449925986 -0.0018249714 0.0003214302 -0.0018920651 0.0003045145 0.6430821388 -0.7019893035
1818578004 0.7611343205 -0.5433459309 -0.0017694054 -0.0004182958 -0.0018375306 -0.0004193595 0.6337666376 -0.7105768912
1821582511 0.7653865620 -0.5353203711 -0.0026608113 -0.0011603593 -0.0027019532 -0.0011871914 0.6313466777 -0.7042918508
1824587018 0.7714565054 -0.5356377787 -0.0027573375 -0.0005770277 -0.0027620147 -0.0005693572 0.6311359659 -0.6933893479
1827591525 0.7729028524 -0.5412951176 -0.0023296749 -0.0000075758 -0.0023400531 -0.0000153860 0.6414315950 -0.6993402356
1830596032 0.7660304212 -0.5394050871 -0.0011908081 -0.0001864474 -0.0012696607 -0.0001221543 0.6425025033 -0.7041894943
1833600539 0.7626972625 -0.5356582238 -0.0018437470 -0.0011957556 -0.0018882882 -0.0011724321 0.6288927599 -0.7025450924
1836605046 0.7670070900 -0.5318135901 -0.0030810608 -0.0005983767 -0.0031409277 -0.0006645261 0.6331642857 -0.6939446796
1839609553 0.7742384020 -0.5363752427 -0.0033341571 -0.0000586854 -0.0033724896 -0.0001322610 0.6466798406 -0.6912268482
1842614060 0.7685330534 -0.5459227490 -0.0013525113 0.0003067123 -0.0014165121 0.0003351899 0.6435745202 -0.7027211900
1845618567 0.7642387348 -0.5359473122 -0.0014439491 -0.0011309994 -0.0014934157 -0.0010790611 0.6389267083 -0.7060256790
1848623074 0.7635044170 -0.5296598425 -0.0025178318 -0.0012686659 -0.0025407007 -0.0012567596 0.6311468612 -0.6991255489
1851627581 0.7742588598 -0.5299941674 -0.0030362373 -0.0004431630 -0.0031022902 -0.0004323648 0.6438248174 -0.6877547469
1854632088 0.7727560440 -0.5361438279 -0.0033412270 0.0013617028 -0.0034901532 0.0012511560 0.6413853390 -0.6894022353
1857636595 0.7619135378 -0.5364421405 -0.0012533853 -0.0001664673 -0.0013169079 -0.0012104922 0.6466289633 -0.6968222119
1860641102 0.7690078130 -0.5329682720 -0.0021903506 -0.0012514135 -0.0021752920 -0.0012602308 0.6422369204 -0.6991254476
1863645609 0.7730651458 -0.5246942803 -0.0028782254 -0.0011840263 -0.0028958018 -0.0011971959 0.6442409085 -0.6931968283
1866650116 0.7725900191 -0.5355218873 -0.0034044096 -0.0004199832 -0.0034673236 -0.0004519106 0.6433394137 -0.6870923012
1869654623 0.7684163258 -0.5330366480 -0.0024181267 0.0003177237 -0.0024611765 0.0003052641 0.6506623439 -0.6934470077
1872659130 0.7655697298 -0.5298277103 -0.0019113086 -0.0003506499 -0.0019759897 -0.0003004547 0.6452596697 -0.6941088963
1875663637 0.7706263211 -0.5259845283 -0.0028825972 -0.0012546148 -0.0029262710 -0.0012697997 0.6428595612 -0.6919299108
1878668144 0.7809319044 -0.5253984023 -0.0028571730 -0.0007529800 -0.0028667946 -0.0007497779 0.6428536313 -0.6878942191
1881672651 0.7698624371 -0.5345982904 -0.0026260977 0.0002290054 -0.0027284666 0.0001969090 0.6488670247 -0.6868129763
1884677158 0.7689499193 -0.5343694819 -0.0019123515 -0.0002069474 -0.0019931810 -0.0001874632 0.6468483314 -0.6966249615
1887681665 0.7682805905 -0.5216864041 -0.0024141636 -0.0012472961 -0.0024145988 -0.0012259220 0.6445366623 -0.6909325734
1890686172 0.7724725518 -0.5213232363 -0.0041031988 -0.0008823006 -0.0041212361 -0.0010034994 0.6436726829 -0.6792136537
1893690679 0.7759368794 -0.5276354903 -0.0037107766 0.0001851451 -0.0037850755 0.0001147171 0.6545512272 -0.6808941836
1896695186 0.7664335821 -0.5341361857 -0.0012889569 0.0004985016 -0.0013806891 0.0005779465 0.6532220250 -0.6868493737
1899699693 0.7711984602 -0.5239250531 -0.0018172229 -0.0013376085 -0.0018258879 -0.0013081616 0.6506154842 -0.6889762713
1902704200 0.7709897384 -0.5201025023 -0.0033050087 -0.0019095670 -0.0032786895 -0.0019552372 0.6451132852 -0.6818677956
1905708707 0.7742661927 -0.5203089731 -0.0041546480 -0.0007852437 -0.0042065488 -0.0008213395 0.6407367041 -0.6770759592
1908713214 0.7752743502 -0.5261261053 -0.0040944179 0.0017127164 -0.0042602717 0.0015510345 0.6497970680 -0.6822071688
1911717721 0.7674173255 -0.5264030270 -0.0015846401 -0.0001593999 -0.0016512287 -0.0001108003 0.6556530923 -0.6867142091
1914722228 0.7659747294 -0.5208601282 -0.0024406357 -0.0011349278 -0.0024878197 -0.0011463883 0.6505008749 -0.6886138927
1917726735 0.7757574236 -0.5197806262 -0.0034913788 -0.0017192268 -0.0034952953 -0.0017617466 0.6474278191 -0.6795271406
1920731242 0.7783035640 -0.5193613960 -0.0040779643 -0.0007674349 -0.0041568253 -0.0008381510 0.6553824783 -0.6748327790
1923735749 0.7696546512 -0.5243287161 -0.0036851521 0.0006803692 -0.0037930724 0.0005856432 0.6551137995 -0.6806567684
1926740256 0.7763646183 -0.5196858831 -0.0021377853 -0.0002595562 -0.0022402731 -0.0002681426 0.6566758365 -0.6804868292
1929744763 0.7693273023 -0.5156459887 -0.0028033131 -0.0012269246 -0.0028300146 -0.0012624582 0.6575280348 -0.6818270771
1932749270 0.7825628340 -0.5168613034 -0.0030486599 -0.0007731520 -0.0031322302 -0.0007797679 0.6472471619 -0.6800241298
1935753777 0.7754590569 -0.5198797813 -0.0032758554 0.0001370873 -0.0033746208 0.0001162011 0.6589467079 -0.6726734554
1938758284 0.7746007490 -0.5217850676 -0.0030170695 0.0000821152 -0.0031464051 0.0000542770 0.6582614087 -0.6812854394
1941762791 0.7754792218 -0.5125351654 -0.0025153999 -0.0009687626 -0.0025384686 -0.0009478671 0.6562334925 -0.6796442213
1944767298 0.7776869797 -0.5136325318 -0.0039937494 -0.0016917712 -0.0039826438 -0.0017584901 0.6514467633 -0.6736948266
1947771805 0.7839242557 -0.5148858880 -0.0040686505 -0.0001504556 -0.0041785663 -0.0002200834 0.6574850866 -0.6724506593
1950776312 0.7755955622 -0.5245729486 -0.0027817186 0.0015628660 -0.0029740467 0.0015332148 0.6591725870 -0.6755457993
1953780819 0.7782541168 -0.5140225075 -0.0022251269 -0.0011111385 -0.0022668977 -0.0010956644 0.6604482965 -0.6776148151
1956785326 0.7769155971 -0.5136341880 -0.0028593330 -0.0017715359 -0.0028962936 -0.0017835028 0.6524213365 -0.6844007797
1959789833 0.7808460469 -0.5132358322 -0.0040499781 -0.0015484897 -0.0040896213 -0.0016093049 0.6514213352 -0.6772496841
1962794340 0.7788507587 -0.5186116432 -0.0052437114 0.0006913061 -0.0054043378 0.0005516385 0.6605153467 -0.6707393128
1965798847 0.7713105405 -0.5165940512 -0.0019464616 0.0008522259 -0.0020649307 0.0009073098 0.6665781677 -0.6734894928
1968803354 0.7775361342 -0.5107127775 -0.0022076556 -0.0010031358 -0.0022681239 -0.0009817451 0.6583674796 -0.6796856094
1971807861 0.7807539308 -0.5100440559 -0.0034113210 -0.0017311367 -0.0034090165 -0.0018024173 0.6513438174 -0.6684399072
1974812368 0.7825954408 -0.5096941360 -0.0038018610 -0.0010805851 -0.0038454490 -0.0011540313 0.6575863915 -0.6695013422
1977816875 0.7817361631 -0.5158190817 -0.0049622628 -0.0005025785 -0.0050333123 -0.0006017290 0.6640824456 -0.6717254565
1980821382 0.7800336351 -0.5114641885 -0.0029696504 0.0008481951 -0.0031507090 0.0008373069 0.6606848364 -0.6740889199
1983825889 0.7703935575 -0.5081191374 -0.0028277027 -0.0008660770 -0.0028890668 -0.0008859473 0.6652357040 -0.6741211493
1986830396 0.7866781345 -0.5012260900 -0.0035047531 -0.0011842114 -0.0035962105 -0.0012112841 0.6610621584 -0.6754337778
1989834903 0.7833842689 -0.5115395510 -0.0043421880 -0.0005809266 -0.0044721263 -0.0006343993 0.6646762164 -0.6643481378
1992839410 0.7840829152 -0.5083759940 -0.0035774896 0.0000211331 -0.0037263968 -0.0000208835 0.6708434745 -0.6692294302
1995843917 0.7794113291 -0.5030868792 -0.0030445496 -0.0003446820 -0.0031482749 -0.0003597048 0.6637820476 -0.6741404287
1998848424 0.7813859723 -0.5028452600 -0.0033347452 -0.0014132926 -0.0033868988 -0.0014437411 0.6665163010 -0.6693637747
2001852931 0.7850191331 -0.5017202771 -0.0050077189 -0.0003960700 -0.0051596916 -0.0004828992 0.6670903727 -0.6626239877
2004857438 0.7822895358 -0.5115642892 -0.0049413121 0.0007144777 -0.0050730640 0.0006332004 0.6701240937 -0.6645299037
2007861945 0.7816888483 -0.5013315529 -0.0019005423 -0.0002638042 -0.0019210153 -0.0001869200 0.6734791585 -0.6660999440
2010866452 0.7842125792 -0.5033009401 -0.0031522599 -0.0014640202 -0.0031962465 -0.0014915741 0.6683460751 -0.6725251328
2013870959 0.7862672161 -0.5062161468 -0.0041257914 -0.0012050487 -0.0042108866 -0.0013126848 0.6718508344 -0.6652423774
2016875466 0.7862274591 -0.5076584945 -0.0055541966 -0.0017891649 -0.0055874875 -0.0018879364 0.6692070316 -0.6630951914
2019879973 0.7871591124 -0.5127892433 -0.0047238675 0.0020748549 -0.0050117518 0.0020947792 0.6679283025 -0.6695974413
2022884480 0.7813387693 -0.5013575692 -0.0019544550 0.0002598617 -0.0020468724 0.0003052094 0.6729551962 -0.6652124494
2025888987 0.7864004803 -0.4977536305 -0.0031839112 -0.0014277708 -0.0032609220 -0.0014636963 0.6698185272 -0.6674113845
2028893494 0.7897893455 -0.5018313202 -0.0038914854 -0.0010429024 -0.0039856546 -0.0010687351 0.6725581109 -0.6621972886
2031898001 0.7887643875 -0.5015890309 -0.0044915466 -0.0012338072 -0.0046072048 -0.0012735960 0.6731534296 -0.6608048183
2034902508 0.7897550885 -0.5050584695 -0.0052485402 0.0007487410 -0.0054395354 0.0007188265 0.6790074170 -0.6659797042
2037907015 0.7817759439 -0.5081149020 -0.0029156775 0.0005709737 -0.0030447404 0.0006133429 0.6755359507 -0.6574478004
2040911522 0.7860637063 -0.4900232668 -0.0034541704 -0.0007771265 -0.0035362619 -0.0007907557 0.6790435358 -0.6626040822
2043916029 0.7947638761 -0.5016659196 -0.0040278845 -0.0011600849 -0.0041105783 -0.0012013925 0.6682038408 -0.6648234055
2046920536 0.7874139018 -0.4992265256 -0.0042397051 0.0003522415 -0.0044333180 0.0003724495 0.6789701445 -0.6536048436
2049925043 0.7900736665 -0.5079333035 -0.0037321407 0.0002111716 -0.0038519599 0.0002288587 0.6794735362 -0.6666347694
2052929550 0.7916576964 -0.4987726201 -0.0032358567 -0.0004879405 -0.0033537997 -0.0004430297 0.6752833615 -0.6572258835
2055934057 0.7964724017 -0.4947332390 -0.0042176086 -0.0018389215 -0.0043319670 -0.0018552962 0.6771119630 -0.6550256635
2058938564 0.7938803364 -0.4928800546 -0.0052358832 -0.0006304166 -0.0053851048 -0.0006545085 0.6788483986 -0.6615573938
2061943071 0.7872684491 -0.4995813922 -0.0041144734 0.0024334889 -0.0043974141 0.0025142618 0.6816346302 -0.6583115307
2064947578 0.7955446579 -0.4897100329 -0.0019775660 -0.0004006776 -0.0020427895 -0.0003162364 0.6877520592 -0.6557477941
2067952085 0.7967518292 -0.4914145221 -0.0034965448 -0.0016876612 -0.0035615821 -0.0017189316 0.6791101534 -0.6605773613
2070956592 0.7926234913 -0.4975225310 -0.0041586448 -0.0014909770 -0.0042334408 -0.0014741354 0.6806309474 -0.6565560373
2073961099 0.7975233320 -0.4916873517 -0.0060449093 -0.0013106575 -0.0061605829 -0.0013680571 0.6895178236 -0.6546379060
2076965606 0.7900556079 -0.4963009168 -0.0046825426 0.0018416235 -0.0048887844 0.0019369909 0.6821544911 -0.6562891944
2079970113 0.7949427437 -0.4892862375 -0.0021745765 -0.0002094737 -0.0022685775 -0.0001166132 0.6903552380 -0.6557938081
2082974620 0.7988098946 -0.4867029835 -0.0036563622 -0.0008021386 -0.0037505573 -0.0008163571 0.6844740764 -0.6552799253
2085979127 0.8044519698 -0.4886771376 -0.0039327803 -0.0010243872 -0.0040653877 -0.0010536724 0.6905570343 -0.6515405120
2088983634 0.7960645000 -0.4898172622 -0.0049120313 -0.0014880748 -0.0050286039 -0.0014853148 0.6907616080 -0.6464864462
2091988141 0.8020686254 -0.4898141735 -0.0048819601 0.0001556308 -0.0050137501 0.0001944529 0.6919454879 -0.6520861927
2094992648 0.7842122696 -0.4839723430 -0.0034293957 0.0005906116 -0.0035754166 0.0006366088 0.6906809492 -0.6474269319
2097997155 0.8024553866 -0.4739705044 -0.0036155867 -0.0004479974 -0.0037225807 -0.0003959366 0.6956955045 -0.6518214012
2101001662 0.8041648579 -0.4849109596 -0.0048383559 -0.0012395415 -0.0049519479 -0.0012610540 0.6933196211 -0.6474255930
2104006169 0.8048353195 -0.4817681484 -0.0043191394 0.0000602088 -0.0044449018 0.0001119615 0.6965334561 -0.6428635274
2107010676 0.7931826041 -0.4814313015 -0.0030254070 0.0002935950 -0.0031884628 0.0003967438 0.6952325534 -0.6420703864
2110015183 0.7995563628 -0.4841307913 -0.0033601899 -0.0007680382 -0.0034597128 -0.0007215493 0.6937677875 -0.6503051328
2113019690 0.8028416403 -0.4841308220 -0.0041619652 -0.0016341512 -0.0042563833 -0.0016680784 0.6951567120 -0.6351251480
2116024197 0.8049874194 -0.4802377765 -0.0059938288 -0.0012193137 -0.0061491303 -0.0012972829 0.6970310861 -0.6413835984
2119028704 0.7965235565 -0.4825995167 -0.0048196271 0.0018703673 -0.0050067203 0.0019508009 0.6946984659 -0.6418392483
2122033211 0.8007483895 -0.4727279184 -0.0023080480 -0.0000004760 -0.0024033243 0.0000833606 0.7042808292 -0.6402545343
2125037718 0.8102961724 -0.4751798686 -0.0034924476 -0.0014551523 -0.0035646089 -0.0014614265 0.6962612069 -0.6418122564
2128042225 0.8039552088 -0.4824715737 -0.0043596069 -0.0014978597 -0.0044883955 -0.0014796779 0.6996853561 -0.6348306890
2131046732 0.8072409186 -0.4742863751 -0.0052940856 -0.0018760986 -0.0054002970 -0.0018990202 0.7043250926 -0.6373377403
2134051239 0.7946068035 -0.4856459092 -0.0059752133 0.0005164745 -0.0061543355 0.0005176451 0.6975229534 -0.6391656419
2137055746 0.7973572082 -0.4673149798 -0.0026096011 0.0006567277 -0.0026566690 0.0008338975 0.7026234922 -0.6308049243
2140060253 0.8031294874 -0.4673962179 -0.0032585663 -0.0005044746 -0.0033718153 -0.0004591735 0.7005148546 -0.6336895276
2143064760 0.8083969348 -0.4614358692 -0.0038702302 -0.0012999394 -0.0039613261 -0.0013127866 0.7071684164 -0.6352900271
2146069267 0.8082963851 -0.4667872372 -0.0047381648 -0.0010418372 -0.0048760411 -0.0009815565 0.7044545051 -0.6283832580
2149073774 0.8130852433 -0.4721351050 -0.0050827556 -0.0008166011 -0.0051555212 -0.0008289457 0.7164328386 -0.6283717021
2152078281 0.8032153071 -0.4576843603 -0.0038972678 0.0003896452 -0.0040208587 0.0004473800 0.7128400217 -0.6327297729
2155082788 0.8144919794 -0.4570538724 -0.0034927440 -0.0011523881 -0.0035434715 -0.0011424047 0.7072349823 -0.6279971144
2158087295 0.8086680865 -0.4618749729 -0.0055050163 -0.0013411521 -0.0056210955 -0.0013388747 0.7128444867 -0.6293894503
2161091802 0.8140759098 -0.4638858837 -0.0049076177 -0.0000236289 -0.0049879790 0.0000410783 0.7036180871 -0.6253415452
2164096309 0.8125632350 -0.4495522563 -0.0031776135 0.0001200351 -0.0031685593 0.0002411465 0.7171078393 -0.6208890797
2167100816 0.8155872163 -0.4570203076 -0.0029923596 -0.0011670011 -0.0030500979 -0.0011227554 0.7125092107 -0.6318063264
2170105323 0.8123628004 -0.4645339213 -0.0046364053 -0.0020380534 -0.0047208231 -0.0020299490 0.7141916714 -0.6157990161
2173109830 0.8144796723 -0.4596389814 -0.0057223372 -0.0024409798 -0.0057249985 -0.0024114937 0.7140382115 -0.6235413637
2176114337 0.8035401639 -0.4626623728 -0.0063669718 0.0014693219 -0.0065195923 0.0014711865 0.7114799250 -0.6215248833
2179118844 0.8063673229 -0.4461684888 -0.0030702614 0.0002657051 -0.0031407557 0.0003236238 0.7164373922 -0.6133615241
2182123351 0.8206034562 -0.4512056327 -0.0033948603 -0.0012675505 -0.0034204948 -0.0012114945 0.7134879542 -0.6230211308
2185127858 0.8144305491 -0.4549901715 -0.0042823430 -0.0014043031 -0.0043297144 -0.0014356196 0.7125902482 -0.6195340871
2188132365 0.8219633020 -0.4544311576 -0.0042733326 -0.0023608619 -0.0043403172 -0.0023279597 0.7164247440 -0.6113608720
2191136872 0.8094030658 -0.4608097763 -0.0068062654 -0.0009963752 -0.0068910717 -0.0010434796 0.7177466019 -0.6181108012
2194141379 0.8041512189 -0.4394981717 -0.0049563370 0.0003113477 -0.0050308276 0.0003336500 0.7180812427 -0.6199730436
2197145886 0.8182366933 -0.4403317601 -0.0032763770 -0.0002515934 -0.0033417039 -0.0002121464 0.7157270563 -0.6091892895
2200150393 0.8182166606 -0.4465644007 -0.0039540261 -0.0011062818 -0.0040239045 -0.0010875146 0.7263341190 -0.6158222909
2203154900 0.8162391506 -0.4478134240 -0.0046452936 -0.0013447693 -0.0047600954 -0.0013176852 0.7189537675 -0.6163789215
2206159407 0.8192121621 -0.4567349764 -0.0054133679 -0.0010690653 -0.0054556736 -0.0010690401 0.7243352952 -0.6063167660
2209163914 0.8155176160 -0.4325120149 -0.0042272266 -0.0002999678 -0.0043009793 -0.0002486776 0.7265787034 -0.6122686218
2212168421 0.8198606385 -0.4358733479 -0.0038312633 -0.0014373767 -0.0039534359 -0.0013878226 0.7253952435 -0.6069736229
2215172928 0.8206044535 -0.4363065665 -0.0052370993 -0.0020312975 -0.0052847750 -0.0020119299 0.7301602238 -0.6056576716
2218177435 0.8186255064 -0.4519490870 -0.0064888402 -0.0007401198 -0.0065479050 -0.0007109751 0.7187533556 -0.6092173851
2221181942 0.8130043433 -0.4227815159 -0.0038679295 0.0010794547 -0.0039403382 0.0011550588 0.7289512742 -0.5973055326
2224186449 0.8268306690 -0.4417893708 -0.0030069410 -0.0009894590 -0.0029831194 -0.0009503598 0.7304567261 -0.6060106134
2227190956 0.8211083289 -0.4424346811 -0.0041943996 -0.0022938425 -0.0042456560 -0.0022473813 0.7230830124 -0.5995602994
2230195463 0.8179194866 -0.4437407597 -0.0052101956 -0.0023310491 -0.0052968793 -0.0023442517 0.7262951924 -0.6014610114
2233199970 0.8127965021 -0.4413328876 -0.0065243606 -0.0017006762 -0.0065618615 -0.0016689834 0.7304300662 -0.6045555833
2236204477 0.8119893520 -0.4195300665 -0.0053319238 0.0009474425 -0.0054414083 0.0010176689 0.7205927169 -0.5998707764
2239208984 0.8269116287 -0.4218042554 -0.0040337460 -0.0010413146 -0.0040290959 -0.0009343289 0.7327666631 -0.5902168270
2242213491 0.8228458965 -0.4425265344 -0.0045373890 -0.0010385523 -0.0045418579 -0.0011152516 0.7310767111 -0.6014524496
2245217998 0.8224562231 -0.4383447933 -0.0038778676 -0.0018563898 -0.0038787767 -0.0018115153 0.7160952588 -0.6032302309
2248222505 0.8174364127 -0.4460911205 -0.0060536924 -0.0027124007 -0.0060670511 -0.0027529332 0.7348157715 -0.5908765252
2251227012 0.8094225206 -0.4371898675 -0.0062159285 -0.0010470917 -0.0062919880 -0.0010612245 0.7356367522 -0.5942295731
2254231519 0.8231300729 -0.4149348321 -0.0049277940 0.0000620311 -0.0049301101 0.0000904466 0.7240204787 -0.5895284800
2257236026 0.8216468870 -0.4211112844 -0.0044632294 -0.0012882105 -0.0045344472 -0.0012656767 0.7384978610 -0.5847438109
2260240533 0.8229652612 -0.4249830233 -0.0057128345 -0.0019271657 -0.0056978170 -0.0019175894 0.7343773437 -0.5927897516
2263245040 0.8235957850 -0.4363601523 -0.0058927681 -0.0012664901 -0.0058827363 -0.0012661778 0.7297905588 -0.5852734283
2266249547 0.8299523937 -0.4095343375 -0.0044687311 -0.0001701757 -0.0045287992 -0.0001805531 0.7410277413 -0.5867293168
2269254054 0.8174945257 -0.4348725569 -0.0039532129 -0.0018932898 -0.0039479456 -0.0019195225 0.7269742626 -0.5896585500
2272258561 0.8208118545 -0.4251490990 -0.0052442710 -0.0023159155 -0.0053093321 -0.0023408269 0.7375335637 -0.5820743306
2275263068 0.8258977523 -0.4224388029 -0.0069635190 -0.0028201536 -0.0069266863 -0.0028412676 0.7375727314 -0.5821822187
2278267575 0.8039583562 -0.4047688480 -0.0066462516 0.0009706559 -0.0067242013 0.0010153351 0.7293332874 -0.5832485108
2281272082 0.8288784937 -0.4083830695 -0.0042181821 -0.0002180652 -0.0042591796 -0.0002099696 0.7335551022 -0.5744192667
2284276589 0.8321140087 -0.4187989635 -0.0042859976 -0.0015051949 -0.0043171540 -0.0014839837 0.7416578088 -0.5854262113
2287281096 0.8249784849 -0.4156721723 -0.0046029578 -0.0023888734 -0.0046714453 -0.0023650081 0.7285621217 -0.5825739349
2290285603 0.8205616050 -0.4289478658 -0.0056492117 -0.0029464734 -0.0056753381 -0.0029871265 0.7468296372 -0.5699310551
2293290110 0.8032215624 -0.4268513610 -0.0071036131 -0.0019124192 -0.0071065008 -0.0019693931 0.7402707629 -0.5867178053
2296294617 0.8157485696 -0.4079846792 -0.0063833998 -0.0007627796 -0.0063527207 -0.0007756487 0.7271569585 -0.5773136730
2299299124 0.8289179438 -0.4070056275 -0.0050591107 -0.0008352987 -0.0050390909 -0.0008449467 0.7377347105 -0.5704122119
2302303631 0.8296981784 -0.4083592127 -0.0045264925 -0.0011734650 -0.0045787739 -0.0011744957 0.7460952993 -0.5739853918
2305308138 0.8246311430 -0.4243020606 -0.0047468337 -0.0029872404 -0.0046682531 -0.0030559662 0.7223076642 -0.5796782003
2308312645 0.8234829683 -0.4218604261 -0.0064301371 -0.0022096249 -0.0064203007 -0.0021759762 0.7411526816 -0.5739046469
2311317152 0.8249867947 -0.4060513471 -0.0057493604 -0.0007854020 -0.0057264325 -0.0008361335 0.7406183792 -0.5792976434
2314321659 0.8199163550 -0.3992193452 -0.0052579107 -0.0017561556 -0.0052466873 -0.0017693014 0.7355573943 -0.5658353707
2317326166 0.8286765202 -0.4045942120 -0.0056573495 -0.0026150971 -0.0056581175 -0.0025706285 0.7460473375 -0.5693155921
2320330673 0.8198815855 -0.4166658442 -0.0077043712 -0.0018628124 -0.0076604221 -0.0019303224 0.7318068133 -0.5776020504
2323335180 0.8284765192 -0.3813552390 -0.0061986825 0.0005274831 -0.0061958280 0.0005217913 0.7392530618 -0.5652863444
2326339687 0.8282935270 -0.4091348355 -0.0042963400 -0.0010177755 -0.0042679033 -0.0010435104 0.7458797094 -0.5660675699
2329344194 0.8286856060 -0.4133807615 -0.0046762078 -0.0027581912 -0.0045935828 -0.0027875388 0.7340828421 -0.5716350582
2332348701 0.8228296050 -0.4174406569 -0.0064123044 -0.0035748557 -0.0063792740 -0.0036509328 0.7418710201 -0.5600916749
2335353208 0.8159927147 -0.4079473097 -0.0074026111 -0.0026703494 -0.0072765924 -0.0026943754 0.7494555272 -0.5696049299
2338357715 0.8169239907 -0.3881038478 -0.0076626302 -0.0006940595 -0.0075671407 -0.0007546672 0.7303041638 -0.5745471333
2341362222 0.8297113155 -0.3936841000 -0.0057059064 -0.0007025730 -0.0056815293 -0.0007928871 0.7443852437 -0.5536747010
2344366729 0.8311804541 -0.4059170093 -0.0055371507 -0.0011583335 -0.0055182465 -0.0012111159 0.7502421863 -0.5692694603
2347371236 0.8346763264 -0.4039761401 -0.0044420307 -0.0019022147 -0.0043961484 -0.0019552707 0.7398435638 -0.5643429117
2350375743 0.8200084047 -0.4217530276 -0.0061370792 -0.0040286019 -0.0060707124 -0.0041263099 0.7380794912 -0.5580987330
2353380250 0.8079690768 -0.4102066781 -0.0071879372 -0.0024108683 -0.0071396683 -0.0024046867 0.7447709804 -0.5703679247
2356384757 0.8274225204 -0.3929031124 -0.0078400368 -0.0013472149 -0.0077187014 -0.0014560511 0.7354001316 -0.5773385967
2359389264 0.8313039604 -0.3958976596 -0.0060085159 -0.0013324008 -0.0059224985 -0.0014289872 0.7449764343 -0.5546050860
2362393771 0.8302954080 -0.3997109022 -0.0057415061 -0.0022227512 -0.0056664006 -0.0022543024 0.7479972081 -0.5652734341
2365398278 0.8275207207 -0.4053190518 -0.0070061970 -0.0024272315 -0.0069712252 -0.0025338598 0.7398241580 -0.5646675319
2368402785 0.8256390853 -0.3883656424 -0.0069019637 -0.0012294124 -0.0068380481 -0.0013409487 0.7496201010 -0.5605209657
2371407292 0.8248597815 -0.4075425630 -0.0052277227 -0.0018958016 -0.0051723702 -0.0019893619 0.7467247518 -0.5617702318
2374411799 0.8296279378 -0.3985350799 -0.0060225734 -0.0031247820 -0.0059366459 -0.0032268350 0.7413080415 -0.5577814405
2377416306 0.8231698908 -0.4012400014 -0.0074131299 -0.0040980582 -0.0073277202 -0.0041086993 0.7505887168 -0.5564928989
2380420813 0.8097063742 -0.3924519164 -0.0094190072 -0.0018461571 -0.0092936009 -0.0019725105 0.7448392577 -0.5679412948
2383425320 0.8353207541 -0.3917101690 -0.0063452199 0.0000792993 -0.0063262436 -0.0000883179 0.7427934850 -0.5534429628
2386429827 0.8435069658 -0.3858726686 -0.0055171478 -0.0013357573 -0.0054408375 -0.0013856951 0.7609189969 -0.5532701449
2389434334 0.8376172408 -0.3986269685 -0.0055112633 -0.0026731331 -0.0053981229 -0.0027838295 0.7485076760 -0.5664695998
2392438841 0.8305808621 -0.4054169901 -0.0062449437 -0.0034893530 -0.0061815932 -0.0035831612 0.7461551270 -0.5435186414
2395443348 0.8109065949 -0.4063720695 -0.0078231217 -0.0033208980 -0.0077625950 -0.0034101969 0.7577212275 -0.5602259945
2398447855 0.8228099170 -0.3802744672 -0.0083730124 -0.0023381863 -0.0082198597 -0.0024792561 0.7436777502 -0.5645768599
2401452362 0.8365968381 -0.3845761043 -0.0089240600 -0.0005684889 -0.0088537598 -0.0008884803 0.7439028154 -0.5472821638
2404456869 0.8402497752 -0.3888159661 -0.0064666257 -0.0006073047 -0.0063978322 -0.0007509513 0.7587963616 -0.5540968637
2407461376 0.8394269479 -0.3960976063 -0.0055694206 -0.0023748505 -0.0054491978 -0.0024785474 0.7509080374 -0.5690082737
2410465883 0.8299970147 -0.4016878612 -0.0074227031 -0.0040602490 -0.0072560410 -0.0042113781 0.7532995685 -0.5436740087
2413470390 0.8170868173 -0.3923222253 -0.0084208120 -0.0022286363 -0.0083226176 -0.0023817294 0.7586242218 -0.5560551298
2416474897 0.8267716132 -0.3852841158 -0.0070002845 -0.0022037844 -0.0068702141 -0.0022716933 0.7512153852 -0.5615664748
2419479404 0.8347905420 -0.3906163500 -0.0071859174 -0.0021274458 -0.0070624376 -0.0023399244 0.7549194944 -0.5518435781
2422483911 0.8300074712 -0.3912298156 -0.0081692844 -0.0042033595 -0.0079616021 -0.0042792547 0.7576434903 -0.5531386400
2425488418 0.8243777641 -0.3856130247 -0.0095755871 -0.0006923829 -0.0094763280 -0.0009552841 0.7502737651 -0.5585761096
2428492925 0.8411240159 -0.3872361177 -0.0067067669 -0.0000116674 -0.0066843296 -0.0002698279 0.7567708919 -0.5474637845
2431497432 0.8399884297 -0.3949165396 -0.0061663780 -0.0022262083 -0.0060616215 -0.0024301131 0.7595262314 -0.5599097367
2434501939 0.8443078447 -0.3907405073 -0.0063086478 -0.0042006821 -0.0061369605 -0.0043866747 0.7542434935 -0.5457075698
2437506446 0.8179918837 -0.3984348090 -0.0089104973 -0.0038586500 -0.0087952002 -0.0040170090 0.7613074506 -0.5485011115
2440510953 0.8168700923 -0.3781651622 -0.0092549583 -0.0028298211 -0.0090395924 -0.0030153858 0.7637401354 -0.5613425130
2443515460 0.8398417089 -0.3758943851 -0.0098473349 -0.0013300024 -0.0096722606 -0.0017185735 0.7441491059 -0.5457578980
2446519967 0.8490614632 -0.3823082203 -0.0078414550 -0.0005642991 -0.0077480383 -0.0008659898 0.7693115778 -0.5428004842
2449524474 0.8487365494 -0.3825450628 -0.0068379081 -0.0011522278 -0.0067473523 -0.0014238903 0.7647398102 -0.5578498873
2452528981 0.8456822190 -0.3952609986 -0.0062915236 -0.0032295113 -0.0061635007 -0.0034668844 0.7553427150 -0.5490548660
2455533488 0.8239462295 -0.4023754603 -0.0087695726 -0.0044694832 -0.0086448788 -0.0047503476 0.7700102172 -0.5382100264
2458537995 0.8223739050 -0.3667356948 -0.0094429017 -0.0028972291 -0.0092599267 -0.0031093042 0.7687833673 -0.5518797738
2461542502 0.8439502409 -0.3704721533 -0.0099666150 -0.0010997055 -0.0098646758 -0.0015082362 0.7529453312 -0.5412134159
2464547009 0.8414612391 -0.3849857795 -0.0083278307 -0.0012925716 -0.0082658395 -0.0016671040 0.7671346079 -0.5485702819
2467551516 0.8401434331 -0.3856890852 -0.0079554399 -0.0030153846 -0.0078163086 -0.0033557685 0.7643165042 -0.5427617291
2470556023 0.8405844836 -0.3877576758 -0.0088974391 -0.0017452429 -0.0088315612 -0.0020589881 0.7590143243 -0.5483418366
2473560530 0.8477747453 -0.3789495157 -0.0082959363 -0.0005387729 -0.0083235454 -0.0009153214 0.7641055840 -0.5376640738
2476565037 0.8357138135 -0.3846583113 -0.0074020878 -0.0027542974 -0.0073103590 -0.0030858127 0.7726337543 -0.5501090756
2479569544 0.8414976225 -0.3866150898 -0.0078718064 -0.0039097060 -0.0077193662 -0.0042273182 0.7640755402 -0.5365121662
2482574051 0.8285991468 -0.3830240522 -0.0107136456 -0.0039349211 -0.0105632409 -0.0043392725 0.7730736678 -0.5448777144
2485578558 0.8382057084 -0.3612501612 -0.0114757230 -0.0016616758 -0.0113019925 -0.0021908487 0.7640027057 -0.5490457171
2488583065 0.8496277644 -0.3723265924 -0.0090134786 0.0000257585 -0.0090258160 -0.0004436428 0.7666517893 -0.5320342702
2491587572 0.8529647910 -0.3763290735 -0.0073900247 -0.0010483261 -0.0073865602 -0.0014085636 0.7808330429 -0.5414537535
2494592079 0.8510525416 -0.3840851567 -0.0077398697 -0.0028699606 -0.0076710552 -0.0032533042 0.7628616019 -0.5496527723
2497596586 0.8419458072 -0.3909607838 -0.0083235995 -0.0044498180 -0.0082657094 -0.0048417186 0.7724394735 -0.5237767241
2500601093 0.8110842107 -0.3741830846 -0.0100601383 -0.0033150732 -0.0100376561 -0.0036649049 0.7831049672 -0.5418227243
2503605600 0.8458495433 -0.3589608970 -0.0109280301 -0.0030789034 -0.0107509833 -0.0036037303 0.7674410913 -0.5446897754
2506610107 0.8534335895 -0.3656038303 -0.0118977073 0.0006721951 -0.0120212280 -0.0000419147 0.7654551492 -0.5292149748
2509614614 0.8555457810 -0.3766835445 -0.0076611617 0.0000627835 -0.0077901047 -0.0003434060 0.7848244642 -0.5383875721
2512619121 0.8544255439 -0.3825555328 -0.0073037658 -0.0022849725 -0.0073500297 -0.0027513502 0.7724227064 -0.5435628136
2515623628 0.8425053915 -0.3806007524 -0.0098490207 -0.0035209170 -0.0098448461 -0.0040429616 0.7769643607 -0.5292466222
2518628135 0.8352995202 -0.3641843308 -0.0102963955 -0.0017400945 -0.0103359872 -0.0022641842 0.7789430123 -0.5332839104
2521632642 0.8510075613 -0.3629316325 -0.0090488674 -0.0023167593 -0.0090784887 -0.0027510359 0.7851669912 -0.5374934248
2524637149 0.8496258861 -0.3707996449 -0.01091529369 -0.0022881017 -0.0092667125 -0.0028085068 0.7741203351 -0.5274170030
2527641656 0.8438422489 -0.3682082053 -0.0114260034 -0.0033114580 -0.0114537174 -0.0039537055 0.7859276360 -0.5312411655
2530646163 0.8444145272 -0.3567530108 -0.0118423581 0.0001482612 -0.0120629990 -0.0005223044 0.7691988621 -0.5364435563
2533650670 0.8592875840 -0.3674590171 -0.0088201708 0.0007739433 -0.0090955638 0.0002874831 0.7840502041 -0.5236491084
2536655177 0.8527850909 -0.3719492995 -0.0077480850 -0.0016240511 -0.0079033761 -0.0020711314 0.7864973490 -0.5352779142
2539659684 0.8549832816 -0.3785431802 -0.0081605668 -0.0036390424 -0.0082578328 -0.0041086152 0.7762975588 -0.5286592543
2542664191 0.8324846031 -0.3767508722 -0.0111692494 -0.0030051625 -0.0113124822 -0.0035666562 0.7892228586 -0.5200254153
2545668698 0.8358072687 -0.3466806403 -0.0106563838 -0.0025879866 -0.0107419785 -0.0031037614 0.7864597995 -0.5367766874
2548673205 0.8525717850 -0.3533949524 -0.0128771668 -0.0017318513 -0.0130380023 -0.0024955909 0.7714220817 -0.5243746716
2551677712 0.8611343467 -0.3615453065 -0.0103960299 0.0016281629 -0.0107721326 0.0010493045 0.7910373284 -0.5154692221
2554682219 0.8661084186 -0.3623338434 -0.0081154987 0.0004054873 -0.0084994544 -0.0001042968 0.7916481614 -0.5254483549
2557686726 0.8589801907 -0.3758090504 -0.0072129029 -0.0021779153 -0.0074801456 -0.0025641587 0.7785492270 -0.5296778559
2560691233 0.8380003521 -0.3756913346 -0.0105835014 -0.0042510471 -0.0107808487 -0.0048013951 0.7967480974 -0.5096627545
2563695740 0.8307434305 -0.3386247370 -0.0113038510 -0.0019819920 -0.0115066264 -0.0024750057 0.7919888659 -0.5277323990
2566700247 0.8626672486 -0.3479230007 -0.0110590535 -0.0007421524 -0.0114617015 -0.0013153758 0.7858083158 -0.5146545350
2569704754 0.8554859489 -0.3556750108 -0.0101405953 -0.0002199023 -0.0105113875 -0.0007435402 0.7897809460 -0.5192449883
2572709261 0.8529143521 -0.3581542913 -0.0101396970 -0.0019314666 -0.0104426001 -0.0024854353 0.7897930487 -0.5127434616
2575713768 0.8496068680 -0.3603633638 -0.0112075836 -0.0005114378 -0.0116130120 -0.0011186042 0.7880101129 -0.5247049285
2578718275 0.8580207899 -0.3569185084 -0.0097812267 0.0008013680 -0.0103203818 0.0002829716 0.7877317931 -0.5075203083
2581722782 0.8455613983 -0.3588288354 -0.0086334238 -0.0016673015 -0.0089618191 -0.0020875138 0.7976245527 -0.5188033742
2584727289 0.8557347566 -0.3637638550 -0.0093592152 -0.0031536486 -0.0096613170 -0.0036346814 0.7890502283 -0.5062473042
2587731796 0.8336508880 -0.3540503751 -0.0120982033 -0.0026719221 -0.0124084089 -0.0031865698 0.7973867999 -0.5111993259
2590736303 0.8476805062 -0.3302792882 -0.0121137760 -0.0017485612 -0.0124223710 -0.0023426265 0.7892771001 -0.5174715416
2593740810 0.8609536110 -0.3475107292 -0.0121925736 0.0011414626 -0.0127588581 0.0005751039 0.7848314169 -0.5045339867
2596745317 0.8640297034 -0.3475519277 -0.0088364239 0.0007867608 -0.0093034891 0.0004298611 0.8053931922 -0.5025629372
2599749824 0.8655040891 -0.3555476912 -0.0086868860 -0.0008436352 -0.0091733215 -0.0012145071 0.7920143496 -0.5187436284
2602754331 0.8512300158 -0.3693281023 -0.0082679930 -0.0029325270 -0.0086019897 -0.0032919386 0.7890037043 -0.4984271022
2605758838 0.8199226535 -0.3563789474 -0.0114047632 -0.0028021551 -0.0118137236 -0.0031873341 0.8035128847 -0.5016101270
2608763345 0.8540729378 -0.3241844668 -0.0118495510 -0.0022971837 -0.0122840083 -0.0027587756 0.7967671971 -0.5125270630
2611767852 0.8600656967 -0.3339438237 -0.0138931835 0.0004023429 -0.0145498945 -0.0002242242 0.7886260788 -0.5000083012
2614772359 0.8616272049 -0.3474005963 -0.0097043361 0.0015000079 -0.0103116268 0.0012335158 0.8012771642 -0.5020516551
2617776866 0.8614519248 -0.3517840892 -0.0081653551 -0.0010296433 -0.0086086067 -0.0012309276 0.7977547045 -0.5038957569
2620781373 0.8521964923 -0.3517917350 -0.0103334299 -0.0018272580 -0.0108637645 -0.0021857665 0.7981643361 -0.5004685899
2623785880 0.8511270049 -0.3440537727 -0.0113074866 -0.0006451541 -0.0119370030 -0.0009889040 0.7936427188 -0.4943152441
2626790387 0.8527103109 -0.3369541772 -0.0098905427 -0.0012472982 -0.0103379682 -0.0015404088 0.8091899437 -0.4960134873
2629794894 0.8521654639 -0.3476240109 -0.0099005584 -0.0020544946 -0.0103580865 -0.0023573440 0.7864222155 -0.4986632199
2632799401 0.8485252326 -0.3390840441 -0.0119947621 -0.0023633984 -0.0124597502 -0.0027280247 0.8078973715 -0.4930260772
2635803908 0.8480246198 -0.3301630412 -0.0128463207 -0.0001399942 -0.0134250194 -0.0005973991 0.7986757883 -0.5046167268
2638808415 0.8646491812 -0.3391314586 -0.0106033136 0.0017813421 -0.0112734073 0.0015542599 0.7977863709 -0.4923269107
2641812922 0.8553999535 -0.3456929711 -0.0083838441 0.0001513601 -0.0089574568 -0.0000692143 0.8081529605 -0.4956770511
2644817429 0.8548216890 -0.3624503845 -0.0091469816 -0.0017209397 -0.0094075668 -0.0020033946 0.7986939206 -0.4914355829
2647821936 0.8412860544 -0.3625000705 -0.0109168156 -0.0026047851 -0.0113922207 -0.0029009079 0.8028519180 -0.4773199390
2650826443 0.8272067773 -0.3273982347 -0.0113314739 -0.0015616142 -0.0119042772 -0.0018212196 0.8089034189 -0.4940405407
2653830950 0.8455311269 -0.3287790309 -0.0122688088 -0.0020884354 -0.0128109754 -0.0023515230 0.7937969028 -0.4942047675
2656835457 0.8564799060 -0.3384518240 -0.0130175298 0.0016861184 -0.0138080912 0.0015738216 0.7987643810 -0.4892887611
2659839964 0.8611052834 -0.3492065259 -0.0095655232 0.0017247517 -0.0100910264 0.0017059030 0.8058872098 -0.4845233549
2662844471 0.8499155594 -0.3533785349 -0.0086171600 -0.0001147634 -0.0092276011 -0.0001894160 0.8058068971 -0.4971152320
2665848978 0.8326122110 -0.3619513155 -0.0100970559 -0.0030921235 -0.0105350425 -0.0031612892 0.7953312762 -0.4737488649
2668853485 0.8128241554 -0.3394084808 -0.0123496952 -0.0014982754 -0.0128710144 -0.0018184117 0.8105734763 -0.4855332353
2671857992 0.8428434506 -0.3287171154 -0.0116826389 0.0000736657 -0.0123194894 0.0000392353 0.8024227187 -0.4800606740
2674862499 0.8285903642 -0.3486646738 -0.0115470134 0.0001407710 -0.0121512644 -0.0000120598 0.8085231574 -0.4863020999
2677867006 0.8130663230 -0.3448671040 -0.0111910012 -0.0005662659 -0.0116979757 -0.0006223667 0.7998016539 -0.4732257789
2680871513 0.8207504614 -0.3493193409 -0.0125631490 -0.0002434193 -0.0131388231 -0.0002804338 0.8097674857 -0.4899247202
2683876020 0.8115054302 -0.3509186600 -0.0118682040 0.0019037945 -0.0124668689 0.0018272212 0.8043602022 -0.4591135365
2686880527 0.7687332726 -0.3749586938 -0.0110422579 0.0023037270 -0.0115411799 0.0023181701 0.8163999877 -0.4797197189
2689885034 0.7824577875 -0.3328704261 -0.0092803786 0.0004896292 -0.0096964372 0.0004937417 0.7909772562 -0.4798554863
2692889541 0.7193821075 -0.3537028942 -0.0126333068 0.0002795620 -0.0130364428 0.0002772387 0.8033648640 -0.4701664800
2695894048 0.6834843759 -0.1959739843 -0.0100452695 0.0041115339 -0.0106936843 0.0040068912 0.8087249021 -0.4831468515
2698898555 0.8042985291 -0.1614907012 -0.0089530173 0.0012383364 -0.0095144452 0.0011294291 0.7959194327 -0.4851912300
2701903062 0.8428981976 -0.2286690040 -0.0109436101 0.0033209223 -0.0115792552 0.0032224876 0.8083708158 -0.4811665310
2704907569 0.8723293943 -0.2148826665 -0.0060915556 0.0034852608 -0.0066179433 0.0036669989 0.8076218576 -0.4874304299
2707912076 0.8723201582 -0.2475808666 -0.0032224795 0.0010628592 -0.0037187353 0.0012725579 0.8114437786 -0.4796736550
2710916583 0.8618452801 -0.2845659239 -0.0066808056 -0.0041084482 -0.0070689012 -0.0041696779 0.7977793147 -0.4682956784
2713921090 0.8318234950 -0.2564044094 -0.0107063033 -0.0024528909 -0.0113264995 -0.0026630231 0.8095091127 -0.4845236474
2716925597 0.8689534993 -0.2404576805 -0.0116391138 -0.0011028277 -0.0122490378 -0.0011657481 0.7945140181 -0.4797041252
2719930104 0.8824047398 -0.2635006437 -0.0091645657 0.0015694255 -0.0097092393 0.0017931954 0.8067393742 -0.4799973776
2722934611 0.8526589686 -0.2999067571 -0.0066708033 0.0001283913 -0.0070555292 0.0002337395 0.7783155060 -0.4850562552
2725939118 0.8665560647 -0.2952734525 -0.0103462718 -0.0019763399 -0.0108647293 -0.0021570470 0.8104672439 -0.4691850825
2728943625 0.8649982600 -0.2819602676 -0.0109074302 0.0008062750 -0.0114968292 0.0009861552 0.7760624729 -0.4804335760
2731948132 0.8670181674 -0.2940927114 -0.0054915800 0.0008184358 -0.0059205427 0.0011153694 0.8053404674 -0.4725256569
2734952639 0.8647595313 -0.3001848982 -0.0064573228 -0.0033433855 -0.0068241539 -0.0032142307 0.7888147267 -0.4863283892
2737957146 0.8464016031 -0.3085297366 -0.0120457670 -0.0037353390 -0.0125690196 -0.0038644531 0.7973292715 -0.4634811798
2740961653 0.8394350343 -0.2757388688 -0.0126296035 0.0006564286 -0.0133422490 0.0008005854 0.7688919956 -0.4998459891
2743966160 0.8762405180 -0.2863789770 -0.0103058215 0.0008022639 -0.0108980815 0.0010134502 0.7825567086 -0.4893278308
2746970667 0.8758955924 -0.2980922717 -0.0084967208 -0.0012775348 -0.0088097058 -0.0010789272 0.7852357116 -0.4716018179
2749975174 0.8549276342 -0.3074654073 -0.0103058781 0.0007954042 -0.0108499763 0.0008858910 0.7905888738 -0.4822621505
2752979681 0.8545338928 -0.3144381620 -0.0061573114 0.0050008819 -0.0067487837 0.0053388834 0.7541924888 -0.4742272532
2755984188 0.8178123567 -0.3278227978 -0.0062855839 -0.0067446391 -0.0064884933 -0.0066799793 0.7701473705 -0.4744615575
2758988695 0.8248111962 -0.2880103852 -0.0152597847 -0.0039565298 -0.0158738110 -0.0040337251 0.7615767928 -0.4910688102
2761993202 0.8298478154 -0.2960691720 -0.0122591748 0.0037220369 -0.0128525400 0.0040286040 0.7482108385 -0.4702199684
2764997709 0.8519864402 -0.2948863079 -0.0057601263 0.0017544820 -0.0061275701 0.0021949401 0.7249917785 -0.4831129673
2768002216 0.8480942176 -0.3258290329 -0.0119292447 -0.0031280816 -0.0121938492 -0.0029738511 0.7425637227 -0.4777072660
2771006723 0.8405414295 -0.3375207295 -0.0105969399 0.0057593546 -0.0112068081 0.0061577199 0.6749137480 -0.4406434517
2774011230 0.7963034711 -0.3326764819 -0.0038191065 0.0000678003 -0.0040371338 0.0004375623 0.7221803022 -0.4769490142
2777015737 0.8147588949 -0.3113751343 -0.0101195835 -0.0027098179 -0.0104438375 -0.0024998163 0.6891720113 -0.3714851770
2780020244 0.8199362303 -0.3326404047 -0.0114172916 0.0011055534 -0.0117922946 0.0013293185 0.7080984292 -0.4408121204
2783024751 0.8054738977 -0.3283111045 -0.0113112806 -0.0014740799 -0.0115452950 -0.0012831449 0.7158350507 -0.3224031938
2786029258 0.7424202030 -0.3241302704 -0.0104439286 0.0033007011 -0.0106718810 0.0034046031 0.6713834339 -0.3846135861
2789033765 0.7874730782 -0.3182215869 -0.0105879889 0.0003289715 -0.0108072930 0.0004361239 0.7375613641 -0.3505722483
2792038272 0.7592931448 -0.3593184103 -0.0090794233 0.0059673038 -0.0093499224 0.0062121276 0.7454584155 -0.2918472749
2795042779 0.7117983886 -0.3625796747 0.0002351208 0.0011614668 0.0001851089 0.0014313436 0.7823630263 -0.3281237755
2798047286 0.6843964664 -0.3188826373 -0.0057304054 -0.0039417692 -0.0059187875 -0.0039317595 0.8078239717 -0.3005656886
2801051793 0.5807214820 -0.3425329965 -0.0077632469 -0.0022276050 -0.0078979628 -0.0022894824 0.8230145580 -0.3284642784
2804056300 0.5409804611 -0.2290509846 -0.0066208663 -0.0037511676 -0.0067669904 -0.0038757549 0.8306935273 -0.3339386849
2807060807 0.5471726662 -0.0821733529 -0.0084172298 -0.0022638393 -0.0088192495 -0.0022815155 0.8264626661 -0.3492374261
2810065314 0.7202427222 -0.0300142051 -0.0073434505 -0.0003468128 -0.0077187221 -0.0001805403 0.8310815867 -0.3423915967
2813069821 0.6750163528 -0.0143452505 -0.0039941655 -0.0046466282 -0.0041875968 -0.0046912927 0.8609041343 -0.3654826427
2816074328 0.7946552344 0.0236365443 -0.0072970456 -0.0061369073 -0.0077110872 -0.0061432535 0.8403051161 -0.3650928743
2819078835 0.8568773861 -0.0432461457 -0.0078228125 -0.0045339026 -0.0082584458 -0.0043446420 0.8391478224 -0.3577607274
2822083342 0.8520439774 -0.0816138121 -0.0087280372 -0.0051145405 -0.0090949361 -0.0048980098 0.8478508930 -0.3658159298
2825087849 0.8692934620 -0.0474199083 -0.0094101274 -0.0047077727 -0.0098295977 -0.0044739838 0.8514261550 -0.3771937507
2828092356 0.9140737612 -0.0751931156 -0.0098325294 -0.0043841573 -0.0102964331 -0.0039488779 0.8563454536 -0.3722547048
2831096863 0.9145702550 -0.0979110660 -0.0097862457 -0.0030154032 -0.0101482393 -0.0026126113 0.8479882974 -0.3777786535
2834101370 0.9251438728 -0.1234447608 -0.0092010850 -0.0032914673 -0.0095312049 -0.0028356748 0.8586532127 -0.3809356660
2837105877 0.9166113703 -0.1455120121 -0.0078011721 -0.0036628393 -0.0080532269 -0.0032521878 0.8480715272 -0.3760459975
2840110384 0.8948265967 -0.1710259920 -0.0080759049 -0.0041673154 -0.0083102950 -0.0037487648 0.8458889988 -0.3847828581
2843114891 0.9070206092 -0.1595837971 -0.0093013640 -0.0048625460 -0.0095662842 -0.0045198052 0.8428558538 -0.3922533120
2846119398 0.9012605159 -0.1498636920 -0.0101560948 -0.0052037320 -0.0104449482 -0.0049126718 0.8628207108 -0.3684284834
2849123905 0.9067615566 -0.1567228268 -0.0104483673 -0.0045402313 -0.0107098555 -0.0042292503 0.8499236176 -0.3877555706
2852128412 0.9180116715 -0.1660962431 -0.0118419136 -0.0040875329 -0.0120842685 -0.0036727403 0.8418294233 -0.3947616710
2855132919 0.9189885350 -0.1701164065 -0.0107924691 -0.0014349267 -0.0109474723 -0.0009248606 0.8483523143 -0.3854099883
2858137426 0.9214913203 -0.1827914797 -0.0084688783 -0.0022785869 -0.0085413019 -0.0019017857 0.8588318971 -0.3863643560
2861141933 0.9150845712 -0.1991703676 -0.0080371146 -0.0041494720 -0.0081188597 -0.0038026773 0.8407594302 -0.4009641282
2864146440 0.8945351920 -0.2069696964 -0.0094405041 -0.0055830667 -0.0095381956 -0.0052182751 0.8517102394 -0.3775372237
2867150947 0.8913555696 -0.1705011874 -0.0106018235 -0.0045809211 -0.0107267107 -0.0041861538 0.8573054249 -0.3949313153
2870155454 0.9050324775 -0.1743449372 -0.0110487622 -0.0045313353 -0.0111268128 -0.0041014937 0.8465166544 -0.3915655496
2873159961 0.9151994015 -0.1786298876 -0.0117184761 -0.0034132791 -0.0117718158 -0.0029739803 0.8514411497 -0.3836905565
2876164468 0.9216092722 -0.1894991122 -0.0103301137 -0.0012927419 -0.0103267503 -0.0008927246 0.8446871194 -0.3823763049
2879168975 0.9124175463 -0.2109816413 -0.0084826004 -0.0024855420 -0.0084135202 -0.0020681674 0.8471743918 -0.3941314758
2882173482 0.9088739307 -0.2029640799 -0.0086051958 -0.0038973149 -0.0086285307 -0.0035056556 0.8433823096 -0.3844430068
2885177989 0.8934625389 -0.2100279864 -0.0092941033 -0.0045005158 -0.0092879604 -0.0042073640 0.8536582192 -0.3807292291
2888182496 0.9057175527 -0.1876752500 -0.0095406805 -0.0048684061 -0.0095206489 -0.0045000989 0.8569062728 -0.3897858010
2891187003 0.8993893096 -0.1880730564 -0.0099773323 -0.0049063868 -0.0099082266 -0.0044858481 0.8507401175 -0.3780256363
2894191510 0.9062015184 -0.1790197785 -0.0106064065 -0.0046346149 -0.0105651859 -0.0042400053 0.8552859090 -0.3814836250
2897196017 0.9104994876 -0.1938835766 -0.0112902453 -0.0039547724 -0.0111564718 -0.0035173157 0.8500013576 -0.3884762588
2900200524 0.9142962959 -0.2021698563 -0.0099424650 -0.0022990048 -0.0097780713 -0.0018966837 0.8533146484 -0.3817161994
2903205031 0.9136123400 -0.2039107442 -0.0078173562 -0.0034576612 -0.0076051030 -0.0031321531 0.8599004311 -0.3816737847
2906209538 0.9070439522 -0.2136779377 -0.0078209083 -0.0053136656 -0.0077037393 -0.0050055444 0.8493769190 -0.3868662156
2909214045 0.8803785151 -0.2132169424 -0.0094675317 -0.0064688687 -0.0094288763 -0.0062220691 0.8629810445 -0.3707188329
2912218552 0.8918041454 -0.1889917395 -0.0105324103 -0.0060107772 -0.0104166471 -0.0056499812 0.8613363269 -0.3862691884
2915223059 0.9072168271 -0.1838412745 -0.0109900595 -0.0059936939 -0.0108544423 -0.0055976483 0.8530527465 -0.3812091883
2918227566 0.9151233780 -0.1926845946 -0.0119627410 -0.0048321561 -0.0117083289 -0.0044848915 0.8604659881 -0.3809880130
2921232073 0.9158167332 -0.1990588428 -0.0098414326 -0.0026815059 -0.0095855212 -0.0023600715 0.8547516196 -0.3738468290
2924236580 0.9132543538 -0.2089037413 -0.0081786897 -0.0042394542 -0.0079175200 -0.0040205012 0.8598922099 -0.3828950315
2927241087 0.9035697028 -0.2164771483 -0.0087730964 -0.0063727980 -0.0084756832 -0.0061917381 0.8532999005 -0.3800507686
2930245594 0.8824434859 -0.2036899465 -0.0100984835 -0.0071067252 -0.0098186615 -0.0068864507 0.8589018703 -0.3704289058
2933250101 0.9013099779 -0.1849794168 -0.0107456450 -0.0061333602 -0.0105659407 -0.0058469607 0.8647665298 -0.3793109639
2936254608 0.9065572376 -0.1907160335 -0.0108831127 -0.0066900945 -0.0106256392 -0.0064374831 0.8562184215 -0.3774677534
2939259115 0.9070579497 -0.1966975654 -0.0118365253 -0.0059087086 -0.0115262870 -0.0057098518 0.8609708105 -0.3769354293
2942263622 0.9122819470 -0.1969211293 -0.0114546048 -0.0048379384 -0.0110954137 -0.0044781071 0.8563452654 -0.3791347649
2945268129 0.9128546258 -0.2013117418 -0.0099158490 -0.0049764680 -0.0095745124 -0.0047186438 0.8596123665 -0.3777144873
2948272636 0.9051337548 -0.2073090880 -0.0088430269 -0.0058413512 -0.0084652280 -0.0056328955 0.8619256418 -0.3743667222
2951277143 0.9020695749 -0.2109703830 -0.0097184400 -0.0070836447 -0.0093942615 -0.0068931014 0.8535367565 -0.3779795729
2954281650 0.8879591867 -0.2010019897 -0.0109019853 -0.0079079763 -0.0105792631 -0.0077278393 0.8656840317 -0.3682693153
2957286157 0.8971102722 -0.1851026743 -0.0114379820 -0.0074552324 -0.0111452767 -0.0072505615 0.8680861078 -0.3708410051
2960290664 0.9050797268 -0.1878476864 -0.0122132059 -0.0074668629 -0.0118320045 -0.0072688719 0.8585315612 -0.3698294944
2963295171 0.9135029039 -0.1904974841 -0.0130927086 -0.0060699227 -0.0126650755 -0.0058264148 0.8613626476 -0.3775749194
2966299678 0.9151868552 -0.1989309052 -0.0109073683 -0.0041830424 -0.0105212308 -0.0040616747 0.8622439029 -0.3671922872
2969304185 0.9108959663 -0.2066211860 -0.0094343165 -0.0062631945 -0.0089974214 -0.0060521651 0.8593394754 -0.3756151508
2972308692 0.8982898975 -0.2158498612 -0.0095740222 -0.0083372202 -0.0091173361 -0.0083350489 0.8569671571 -0.3694907572
2975313199 0.8797927504 -0.1822214965 -0.0116466126 -0.0087033764 -0.0113267428 -0.0085456869 0.8698997170 -0.3647206457
2978317706 0.8961074932 -0.1836587061 -0.0123820110 -0.0081106833 -0.0120115974 -0.0079130006 0.8657186633 -0.3721884997
2981322213 0.9084840649 -0.1824337649 -0.0125512369 -0.0080832425 -0.0121302651 -0.0079484285 0.8641587851 -0.3660639074
2984326720 0.9140756003 -0.1850694406 -0.0136365555 -0.0077629217 -0.0131241521 -0.0076568759 0.8663675008 -0.3654088516
2987331227 0.9108263155 -0.1965079522 -0.0123639367 -0.0059185876 -0.0117823355 -0.0059294027 0.8655854074 -0.3611618301
2990335734 0.9075753302 -0.1975628543 -0.0109702709 -0.0069613353 -0.0104754608 -0.0069114351 0.8635155896 -0.3691539951
2993340241 0.9016219947 -0.2064818968 -0.0109601751 -0.0080884676 -0.0104942762 -0.0081643837 0.8639846957 -0.3626976540
2996344748 0.8980828827 -0.1841995211 -0.0118460110 -0.0092206269 -0.0113903499 -0.0091360427 0.8679939614 -0.3603316304
2999349255 0.9008295419 -0.1865042044 -0.0123971507 -0.0094827270 -0.0118617707 -0.0093903766 0.8668099453 -0.3591038590
3002353762 0.9018904131 -0.1804952775 -0.0134904897 -0.0090501294 -0.0129980308 -0.0090041097 0.8735596371 -0.3602094136
3005358269 0.9090485838 -0.1751969258 -0.0137002727 -0.0089596526 -0.0131359058 -0.0088837283 0.8676859047 -0.3562684384
3008362776 0.9108792854 -0.1841348136 -0.0142886275 -0.0074703619 -0.0137264347 -0.0074478557 0.8689834045 -0.3631771750
3011367283 0.9161479420 -0.1873247578 -0.0127642254 -0.0066316225 -0.0121761855 -0.0067108169 0.8730890114 -0.3543466831
3014371790 0.9098331290 -0.1975804888 -0.0114317193 -0.0078335317 -0.0108243252 -0.0078659670 0.8694289575 -0.3585195615
3017376297 0.8993040635 -0.2055264941 -0.0116740903 -0.0093553085 -0.0111301627 -0.0094706963 0.8663273955 -0.3518530516
3020380804 0.8857445553 -0.1943819597 -0.0136279412 -0.0101774102 -0.0131907123 -0.0102721722 0.8795096734 -0.3595105509
3023385311 0.8961635919 -0.1738558674 -0.0142448343 -0.0095142070 -0.0137000259 -0.0095535158 0.8714447014 -0.3548497132
3026389818 0.9125102498 -0.1742369222 -0.0150319530 -0.0095039354 -0.0143631023 -0.0095620349 0.8725028814 -0.3529136230
3029394325 0.9152842027 -0.1816105562 -0.0161520672 -0.0085977835 -0.0153958199 -0.0087781226 0.8733926113 -0.3541846661
3032398832 0.9132814213 -0.1909222882 -0.0140859106 -0.0066692458 -0.0133947541 -0.0069346889 0.8716992750 -0.3486179377
3035403339 0.9062522119 -0.1989156165 -0.0127149659 -0.0083668217 -0.0120523288 -0.0085557906 0.8726080200 -0.3621313190
3038407846 0.9002288791 -0.1961043971 -0.0132332392 -0.0100204503 -0.0125917298 -0.0102441626 0.8701672272 -0.3496679180
3041412353 0.8843315972 -0.1740556511 -0.0148723502 -0.0103507993 -0.0142773957 -0.0105258546 0.8776521845 -0.3456120107
3044416860 0.9027394716 -0.1775477418 -0.0149924517 -0.0099753254 -0.0143519434 -0.0102406682 0.8776325988 -0.3507317764
3047421367 0.9046708324 -0.1775575234 -0.0158637905 -0.0100364331 -0.0152201991 -0.0100907646 0.8766426074 -0.3455536299
3050425874 0.9072785682 -0.1740569489 -0.0166139475 -0.0092975785 -0.0158490224 -0.0092692260 0.8727214767 -0.3521122069
3053430381 0.9099099899 -0.1787730552 -0.0157807142 -0.0084397292 -0.0150531308 -0.0086236647 0.8746827538 -0.3479367865
3056434888 0.9081419129 -0.1824960148 -0.0150753004 -0.0081402115 -0.0143642339 -0.0084523216 0.8769946012 -0.3465528985
3059439395 0.9104153579 -0.1897934340 -0.0148918233 -0.0088884564 -0.0141728379 -0.0092706051 0.8755135746 -0.3493797973
3062443902 0.8968427987 -0.1909821908 -0.0146182298 -0.0102547387 -0.0138951278 -0.0107237018 0.8744616660 -0.3428507470
3065448409 0.9008421936 -0.1795702415 -0.0160402847 -0.0108668977 -0.0152362309 -0.0110170146 0.8811529011 -0.3471174458
3068452916 0.8937135127 -0.1655364502 -0.0165397293 -0.0105084131 -0.0157870134 -0.0107412414 0.8814897154 -0.3416449385
3071457423 0.9085472354 -0.1639497188 -0.0174448642 -0.0105149929 -0.0166347832 -0.0107775377 0.8792901585 -0.3470994025
3074461930 0.9187994350 -0.1672498831 -0.0190529881 -0.0096529006 -0.0180418639 -0.0099977837 0.8807848532 -0.3463408917
3077466437 0.9137868797 -0.1802535856 -0.0169261900 -0.0071352443 -0.0161591495 -0.0076382110 0.8780984293 -0.3421278014
3080470944 0.9098973546 -0.1869170721 -0.0149304680 -0.0085784553 -0.0141677915 -0.0091743959 0.8835515652 -0.3423212471
3083475451 0.8896340313 -0.1913518630 -0.0154317625 -0.0109168749 -0.0147172499 -0.0113808095 0.8688683229 -0.3425130604
3086479958 0.8898468554 -0.1591866097 -0.0175418104 -0.0112299399 -0.0168625886 -0.0115636766 0.8845759096 -0.3356913387
3089484465 0.9015353004 -0.1636430501 -0.0180934256 -0.0104396440 -0.0172221366 -0.0109512289 0.8821723095 -0.3434151546
3092488972 0.9084180975 -0.1635090057 -0.0186848835 -0.0105114103 -0.0178784237 -0.0110240373 0.8784597100 -0.3359972567
3095493479 0.9084088517 -0.1671823548 -0.0197279591 -0.0094707220 -0.0188600862 -0.0100425728 0.8809289156 -0.3411695720
3098497986 0.9057262177 -0.1713365721 -0.0178026629 -0.0079336272 -0.0170209461 -0.0085595890 0.8783556683 -0.3353623413
3101502493 0.9052575069 -0.1758840921 -0.0174516292 -0.0092365704 -0.0166608468 -0.0099146273 0.8790635076 -0.3395261602
3104507000 0.8977865886 -0.1760037559 -0.0179638061 -0.0097330637 -0.0171394419 -0.0104783746 0.8725122983 -0.3357884647
3107511507 0.8969566717 -0.1727213076 -0.0178633364 -0.0099702230 -0.0171388928 -0.0106400530 0.8793668610 -0.3342166665
3110516014 0.9005174271 -0.1688197279 -0.0187840964 -0.0107887418 -0.0179716030 -0.0115407226 0.8805816729 -0.3314381263
3113520521 0.8892035613 -0.1658897935 -0.0195213012 -0.0102260035 -0.0187812988 -0.0108574285 0.8812087605 -0.3355223030
3116525028 0.9017115505 -0.1498151323 -0.0199860087 -0.0106666498 -0.0190749008 -0.0112850673 0.8796071407 -0.3357616655
3119529535 0.9101196975 -0.1602314053 -0.0217576377 -0.0097792140 -0.0207715814 -0.0107184613 0.8809415247 -0.3333727060
3122534042 0.9116456769 -0.1668330917 -0.0204080810 -0.0070571476 -0.0196147598 -0.0081295124 0.8803290892 -0.3287034012
3125538549 0.9101766431 -0.1713513836 -0.0179030329 -0.0081571139 -0.0171524564 -0.0091492589 0.8849189667 -0.3296817323
3128543056 0.8935149642 -0.1844479597 -0.0182355031 -0.0104788808 -0.0176512160 -0.0114209585 0.8762017359 -0.3270772156
3131547563 0.8902171057 -0.1469334985 -0.0203169185 -0.0111759071 -0.0195389568 -0.0121169852 0.8918858998 -0.3145149894
3134552070 0.8948897314 -0.1501999848 -0.0212548737 -0.0103748725 -0.0203638765 -0.0113576671 0.8869193080 -0.3243496010
3137556577 0.9059071897 -0.1547776204 -0.0221400576 -0.0102181075 -0.0212987084 -0.0113477751 0.8841322205 -0.3264696899
3140561084 0.9092256587 -0.1573354751 -0.0233885858 -0.0091951120 -0.0225164211 -0.0104461317 0.8844932261 -0.3312219245
3143565591 0.9048082416 -0.1666470089 -0.0212554128 -0.0065045579 -0.0207014209 -0.0077388973 0.8802480507 -0.3291842733
3146570098 0.9050755765 -0.1640891438 -0.0197594837 -0.0085428196 -0.0190993752 -0.0098215772 0.8850972937 -0.3313387002
3149574605 0.8936242111 -0.1739068394 -0.0208276553 -0.0098654017 -0.0203138778 -0.0110980048 0.8798143964 -0.3248578193
3152579112 0.8987508133 -0.1510682299 -0.0220603633 -0.0093224846 -0.0213949797 -0.0105667746 0.8860913450 -0.3237907496
3155583619 0.9013968870 -0.1576929899 -0.0221755613 -0.0096958698 -0.0215096496 -0.0110060704 0.8868915817 -0.3226955625
3158588126 0.8937540748 -0.1600931821 -0.0228214107 -0.0092005660 -0.0222281991 -0.0104614748 0.8898355427 -0.3217905676
3161592633 0.8954325282 -0.1477869339 -0.0228004432 -0.0089477741 -0.0221998496 -0.0102660796 0.8837080898 -0.3257269576
3164597140 0.9045808736 -0.1502885067 -0.0244369783 -0.0090643355 -0.0237735070 -0.0106247189 0.8859884376 -0.3268392849
3167601647 0.9095688138 -0.1542248508 -0.0247023462 -0.0060147829 -0.0243228248 -0.0077626992 0.8822191782 -0.3216451380
3170606154 0.9078441758 -0.1649560354 -0.0214752500 -0.0062011365 -0.0212158708 -0.0077726139 0.8858572705 -0.3264892749
3173610661 0.8981816567 -0.1751022478 -0.0206448958 -0.0087063471 -0.0204126511 -0.0101746621 0.8807184305 -0.3225440881
3176615168 0.8759554414 -0.1477574668 -0.0234433895 -0.0094363852 -0.0229623641 -0.0107609351 0.8868683527 -0.3190084510
3179619675 0.8933556921 -0.1369097497 -0.0242478957 -0.0088597482 -0.0238564722 -0.0104317295 0.8914224809 -0.3183760490
3182624182 0.9016551039 -0.1383500358 -0.0246927381 -0.0086091804 -0.0243612174 -0.0101910044 0.8873952757 -0.3201324625
3185628689 0.9053921524 -0.1517141970 -0.0265178179 -0.0069277215 -0.0262604393 -0.0089016077 0.8862801083 -0.3236900373
3188633196 0.9059681448 -0.1572912566 -0.0244997738 -0.0038534839 -0.0245821221 -0.0056609840 0.8811358866 -0.3190874151
3191637703 0.8996719194 -0.1576996829 -0.0223961760 -0.0054798773 -0.0224525014 -0.0070419710 0.8879753844 -0.3217060884
3194642210 0.8912366969 -0.1698148205 -0.0225061874 -0.0077003580 -0.0225032385 -0.0094257597 0.8795979660 -0.3198619941
3197646717 0.8854151522 -0.1340845856 -0.0250975568 -0.0077649559 -0.0249807075 -0.0095264939 0.8898684604 -0.3129922635
3200651224 0.8993571743 -0.1435957659 -0.0250416689 -0.0067745691 -0.0251315634 -0.0086629408 0.8856478133 -0.3181471689
3203655731 0.8979537615 -0.1454845614 -0.0252792390 -0.0058984571 -0.0254908309 -0.0076398560 0.8899795640 -0.3132565468
3206660238 0.8904915471 -0.1447306586 -0.0253776735 -0.0055437059 -0.0255543344 -0.0073838933 0.8863903097 -0.3187860800
3209664745 0.8994521130 -0.1435860900 -0.0252292536 -0.0059251293 -0.0254596550 -0.0079733195 0.8884135574 -0.3176603700
3212669252 0.9017047938 -0.1443647071 -0.0265708729 -0.0046035163 -0.0269574633 -0.0064557020 0.8830776707 -0.3197302580
3215673759 0.9032204098 -0.1517594697 -0.0240614760 -0.0028237889 -0.0246926557 -0.0046119750 0.8859323748 -0.3126556290
3218678266 0.8988724722 -0.1556996762 -0.0226845226 -0.0049404428 -0.0232383504 -0.0066475541 0.8855544566 -0.3135907955
3221682773 0.8749783972 -0.1515474649 -0.0244193882 -0.0067091235 -0.0248168847 -0.0083615055 0.8880192099 -0.3065415203
3224687280 0.8788277436 -0.1360932296 -0.0255517520 -0.0055737174 -0.0260652827 -0.0072371972 0.8891863229 -0.3124787182
3227691787 0.8955766284 -0.1277286163 -0.0259926460 -0.0051357893 -0.0265767120 -0.0069819972 0.8877158905 -0.3154910775
3230696294 0.9029577786 -0.1350793781 -0.0274815351 -0.0041138432 -0.0282610365 -0.0061094520 0.8886426898 -0.3109703378
3233700801 0.9057698470 -0.1412165409 -0.0260744886 -0.0009040648 -0.0271870948 -0.0025806694 0.8840370883 -0.3107489112
3236705308 0.9019515108 -0.1553030007 -0.0228669302 -0.0011350012 -0.0239113402 -0.0027060589 0.8891025256 -0.3109701398
3239709815 0.8859531349 -0.1525678969 -0.0224884469 -0.0035943133 -0.0234565560 -0.0051261481 0.8815586304 -0.3088616144
3242714322 0.8731306254 -0.1277640336 -0.0246358468 -0.0057605423 -0.0253791007 -0.0072957077 0.8897971818 -0.2949545216
3245718829 0.8882985314 -0.1278416862 -0.0261132294 -0.0039614481 -0.0272380105 -0.0056076700 0.8899453508 -0.3116968911
3248723336 0.8969935116 -0.1318655822 -0.0257880304 -0.0027570490 -0.0269594678 -0.0043953454 0.8906840252 -0.2993540398
3251727843 0.8946570835 -0.1394726488 -0.0259901435 -0.0020942986 -0.0271840441 -0.0036876797 0.8890921657 -0.3092747448
3254732350 0.8912069225 -0.1362015593 -0.0242292958 -0.0009680836 -0.0256316966 -0.0022168765 0.8871328618 -0.3064685664
3257736857 0.8960171489 -0.1409464838 -0.0245484598 -0.0022532484 -0.0257969011 -0.0039379810 0.8908443263 -0.3117446809
3260741364 0.8940559064 -0.1367672382 -0.0248649623 -0.0008381788 -0.0262830235 -0.0022402337 0.8822360845 -0.3013278887
3263745871 0.8922170039 -0.1431212904 -0.0233634276 -0.0009186146 -0.0246859401 -0.0020871377 0.8894100153 -0.3060118570
3266750378 0.8824872289 -0.1464196130 -0.0227793176 -0.0030583153 -0.0241109481 -0.0041530062 0.8848195393 -0.2976154800
3269754885 0.8700921803 -0.1349012110 -0.0249544175 -0.0029687489 -0.0262135805 -0.0042987365 0.8949916729 -0.2985434028
3272759392 0.8862893133 -0.1112366066 -0.0247522167 -0.0025119112 -0.0261771635 -0.0037359385 0.8875522865 -0.3009872400
3275763899 0.8959238777 -0.1236330475 -0.0256438579 -0.0017158151 -0.0272690381 -0.0030078664 0.8902646172 -0.3056201201
3278768406 0.9035581625 -0.1312585332 -0.0258385740 0.0015230453 -0.0277329010 0.0003720734 0.8869331332 -0.3021606631
3281772913 0.9001591564 -0.1399268915 -0.0218469784 0.0016382768 -0.0234414408 0.0009035244 0.8888081521 -0.2982226349
3284777420 0.8863993182 -0.1562781188 -0.0208018927 -0.0013794405 -0.0222092142 -0.0022490539 0.8814090182 -0.3027497875
3287781927 0.8643698994 -0.1192172517 -0.0231339454 -0.0031959805 -0.0244596654 -0.0041677498 0.8883982375 -0.2916629113
3290786434 0.8802152682 -0.1165253705 -0.0240040395 -0.0023115747 -0.0254968870 -0.0033511794 0.8916743767 -0.2902003332
3293790941 0.8869352842 -0.1118588028 -0.0243717303 -0.0015665825 -0.0259542358 -0.0024679589 0.8909081725 -0.3003794529
3296795448 0.8960059098 -0.1240886867 -0.0247364683 -0.0004850543 -0.0263820584 -0.0012783328 0.8920133600 -0.2955681157
3299799955 0.8902741481 -0.1326712338 -0.0234354670 0.0020323210 -0.0251783584 0.0014966543 0.8868718931 -0.3003001548
3302804462 0.8846505263 -0.1290488418 -0.0205755827 0.0002797308 -0.0221417645 -0.0003169329 0.8878006120 -0.2921981292
3305808969 0.8883919790 -0.1343858156 -0.0227136428 -0.0017609352 -0.0243016889 -0.0025179207 0.8859256900 -0.2957732136
3308813476 0.8833881129 -0.1188093861 -0.0228294149 0.0001524672 -0.0245249726 -0.0006163923 0.8868884265 -0.2873534613
3311817983 0.8864166606 -0.1241679467 -0.0210460286 -0.0006635903 -0.0226604860 -0.0011823823 0.8884321902 -0.2908242828
3314822490 0.8732745752 -0.1324388777 -0.0224520703 -0.0016645983 -0.0240129515 -0.0021076789 0.8875267154 -0.2868515181
3317826997 0.8704218384 -0.1071764292 -0.0221068449 -0.0007949049 -0.0237178182 -0.0014650518 0.8908107402 -0.2926150083
3320831504 0.8881575812 -0.1070420388 -0.0232009880 -0.0015490067 -0.0248850529 -0.0022657841 0.8889259174 -0.2940087226
3323836011 0.8968689655 -0.1156569554 -0.0250730059 0.0011731757 -0.0268846187 0.0007389433 0.8864470642 -0.2956729355
3326840518 0.8976640586 -0.1293056261 -0.0203264970 0.0026709971 -0.0219186803 0.0025540881 0.8862549385 -0.2891143811
3329845025 0.8897346435 -0.1411982912 -0.0184906233 -0.0005852198 -0.0199367035 -0.0007718348 0.8863168339 -0.2922564172
3332849532 0.8472773907 -0.1267829722 -0.0207225344 -0.0023297845 -0.0220443817 -0.0026031345 0.8847600043 -0.2854276918
3335854039 0.8769474368 -0.1132826696 -0.0212927149 -0.0013171970 -0.0228664515 -0.0014967914 0.8894798909 -0.2894572183
3338858546 0.8789377357 -0.1057236544 -0.0220681637 -0.0155980400 -0.0236656365 -0.0018271794 0.8927960864 -0.2940823691
3341863053 0.8958640619 -0.1091035982 -0.0233375727 -0.0007103326 -0.0249894892 -0.0008394759 0.8899597715 -0.2940430458
3344867560 0.8969928022 -0.1247900044 -0.0226186723 0.0021298943 -0.0243005438 0.0020473328 0.8889568727 -0.2923168665
3347872067 0.8892480030 -0.1260460694 -0.0193954791 0.0017253039 -0.0208405317 0.0018617704 0.8868893581 -0.2937391755
3350876574 0.8849543225 -0.1304860103 -0.0184633960 -0.0012353383 -0.0197279771 -0.0012422288 0.8855149500 -0.2904308453
3353881081 0.8506911401 -0.1150153177 -0.0206325161 -0.0024163222 -0.0219541553 -0.0026670435 0.8875072199 -0.2766710304
3356885588 0.8856448713 -0.1085542901 -0.0212206365 -0.0002976051 -0.0227002615 -0.0002769701 0.8891022530 -0.2812826444
3359890095 0.8853070570 -0.1190917187 -0.0203988258 -0.0006504364 -0.0217796062 -0.0006224912 0.8908898158 -0.2875324166
3362894602 0.8686843259 -0.1144092501 -0.0200632709 -0.0012717601 -0.0213920040 -0.0012169579 0.8903461310 -0.2808033575
3365899109 0.8852664322 -0.0957722179 -0.0204594452 -0.0016959626 -0.0218161640 -0.0016368321 0.8921842949 -0.2844288656
3368903616 0.8949434877 -0.1059495632 -0.0224957852 -0.0012465411 -0.0238985598 -0.0011357971 0.8895301242 -0.2896938583
3371908123 0.8953989731 -0.1114193197 -0.0203347632 0.0024940691 -0.0215927652 0.0028373650 0.8819750144 -0.2771281097
3374912630 0.8913349075 -0.1275225155 -0.0171601422 0.0001858800 -0.0182934706 0.0004228901 0.8878602485 -0.2859339901
3377917137 0.8562944345 -0.1368254269 -0.0176420804 -0.0034020513 -0.0186895313 -0.0033313879 0.8795900107 -0.2743354315
3380921644 0.8702315006 -0.0944375818 -0.0200659118 -0.0028075708 -0.0213765195 -0.0026934241 0.8913659217 -0.2717941362
3383926151 0.8727804607 -0.0847967807 -0.0197686105 -0.0017505225 -0.0211114987 -0.0015847717 0.8887180269 -0.2771782806
3386930658 0.8930042357 -0.0927140538 -0.0207055605 -0.0025032480 -0.0220343177 -0.0021977887 0.8927771010 -0.2796646005
3389935165 0.8907089296 -0.1021431525 -0.0219198361 -0.0002624754 -0.0232608243 0.0000511808 0.8896419415 -0.2774994924
3392939672 0.8935972923 -0.1103947701 -0.0182971431 0.0022848922 -0.0193866605 0.0028556175 0.8842533428 -0.2660771015
3395944179 0.8831764563 -0.1220164175 -0.0158418701 -0.0012110213 -0.0168532907 -0.0009031676 0.8850657798 -0.2813421452
3398948686 0.8463931544 -0.1170272396 -0.0180170742 -0.0042341975 -0.0190845900 -0.0041044022 0.8786406185 -0.2650888739
3401953193 0.8771100486 -0.0880341042 -0.0200457110 -0.0033842624 -0.0213001972 -0.0029867179 0.8916468386 -0.2714599966
3404957700 0.8819565163 -0.0968189804 -0.0194448042 -0.0015212325 -0.0206307153 -0.0010817517 0.8826903462 -0.2658913104
3407962207 0.8802825384 -0.1032048438 -0.0191551491 -0.0016245459 -0.0202092984 -0.0013654239 0.8928627444 -0.2717064563
3410966714 0.8747091345 -0.0911551914 -0.0190216062 -0.0022027489 -0.0200671003 -0.0018095156 0.8850935932 -0.2723574179
3413971221 0.8872383932 -0.0912182732 -0.0190398106 -0.0034623677 -0.0201083292 -0.0029823212 0.8853458197 -0.2688632393
3416975728 0.8868527482 -0.0985606535 -0.0208841310 -0.0010011474 -0.0218600967 -0.0006395768 0.8854307037 -0.2693118633
3419980235 0.8863315007 -0.1065495780 -0.0163172905 -0.0000921453 -0.0172327748 0.0004104977 0.8865057521 -0.2587826235
3422984742 0.8760679157 -0.1247677918 -0.0157670318 -0.0039767272 -0.0166748900 -0.0036191788 0.8762431669 -0.2689564300
3425989249 0.8558744348 -0.0828714239 -0.0189106049 -0.0050809294 -0.0200257665 -0.0047000241 0.8950028161 -0.2503088996
3428993756 0.8684987668 -0.0757825054 -0.0188470631 -0.0038886633 -0.0198983345 -0.0034792658 0.8913942210 -0.2576326125
3431998263 0.8880039479 -0.0708244019 -0.0195247315 -0.0040429030 -0.0205863779 -0.0035012445 0.8922394197 -0.2691352844
3435002770 0.8948878379 -0.0852733901 -0.0208767184 -0.0028582044 -0.0218969479 -0.0023133599 0.8915418416 -0.2597455039
3438007277 0.8929240081 -0.0969683701 -0.0185410757 -0.0003700059 -0.0193482055 0.0002161307 0.8850377662 -0.2593722879
3441011784 0.8863925353 -0.1077410038 -0.0153503779 -0.0019613197 -0.0160916690 -0.0014091683 0.8894713833 -0.2592875197
3444016291 0.8492832020 -0.1123872385 -0.0160492913 -0.0053707016 -0.0169297405 -0.0050195252 0.8825631974 -0.2538960833
3447020798 0.8654369995 -0.0726107564 -0.0184160114 -0.0058340073 -0.0195196368 -0.0053314125 0.8930712774 -0.2460345181
3450025305 0.8747983073 -0.0688600646 -0.0194035910 -0.0047761689 -0.0204054869 -0.0040400171 0.8903546164 -0.2521682112
3453029812 0.8909996280 -0.0690081250 -0.0189021347 -0.0035108120 -0.0198231038 -0.0027197059 0.8942386354 -0.2533973033
3456034319 0.8867908518 -0.0908770839 -0.0187086645 -0.0033851290 -0.0195348848 -0.0028700661 0.9010340334 -0.2587002826
3459038826 0.8757853909 -0.0830519915 -0.0178089866 -0.0037558656 -0.0186299729 -0.0032250271 0.8905709381 -0.2507055646
3462043333 0.8866059440 -0.0833210733 -0.0179813538 -0.0049005628 -0.0187979034 -0.0042551472 0.8937478595 -0.2536073494
3465047840 0.8739756894 -0.1023601212 -0.0185669934 -0.0028309812 -0.0193372248 -0.0021733069 0.8849436141 -0.2522300949
3468052347 0.8801128533 -0.0851596514 -0.0164241468 -0.0042816822 -0.0172055944 -0.0036986294 0.9010376543 -0.2466538178
3471056854 0.8624142407 -0.0959584990 -0.0170948144 -0.0067668698 -0.0178744085 -0.0062711653 0.8867445702 -0.2423754899
3474061361 0.8561993130 -0.0603171348 -0.0185724475 -0.0058121293 -0.0195242314 -0.0051721624 0.9048444752 -0.2481039976
3477065868 0.8882305001 -0.0560961292 -0.0190101566 -0.0061684689 -0.0198790342 -0.0053257620 0.9010925947 -0.2496227122
3480070375 0.8958385537 -0.0756734462 -0.0201744292 -0.0059281194 -0.0204239380 -0.0049857366 0.8696241818 -0.2217255620
3483074882 0.8953458217 -0.0772721776 -0.0188215926 -0.0031849705 -0.0194565075 -0.0024497920 0.8970367589 -0.2482044124
3486079389 0.8918832518 -0.0910215257 -0.0158761419 -0.0038415560 -0.0165497618 -0.0032997890 0.9002415735 -0.2453034214
3489083896 0.8570745601 -0.1168330847 -0.0156746206 -0.0066483707 -0.0164012498 -0.0060342562 0.8849431469 -0.2540621808
3492088403 0.8700572820 -0.0395638637 -0.0177656438 -0.0075679976 -0.0186138022 -0.0068640126 0.9080400926 -0.2367257211
3495092910 0.8782966590 -0.0604636385 -0.0188491912 -0.0075965257 -0.0196961196 -0.0067292689 0.9028695487 -0.2435154048
3498097417 0.8929934292 -0.0500593866 -0.0193084819 -0.0070985120 -0.0201021766 -0.0060868108 0.9059569747 -0.2483518160
3501101924 0.8978204811 -0.0692144732 -0.0191471686 -0.0058414022 -0.0197225431 -0.0051567426 0.9047058815 -0.2384292721
3504106431 0.8919559597 -0.0739050493 -0.0182940933 -0.0053747632 -0.0189881969 -0.0044667155 0.9008602013 -0.2569486690
3507110938 0.8790382745 -0.0746026878 -0.0168593724 -0.0063734745 -0.0175657782 -0.0055223090 0.8971691355 -0.2439835797
3510115445 0.8773452714 -0.0803829339 -0.0175434721 -0.0076231429 -0.0181660153 -0.0067307997 0.8958628477 -0.2498564608
3513119952 0.8807094138 -0.0530053162 -0.0183321232 -0.0069079673 -0.0189582319 -0.0060051063 0.8978499263 -0.2423608554
3516124459 0.8867172751 -0.0660493321 -0.0172458722 -0.0074495048 -0.0178590245 -0.0066276403 0.9061638888 -0.2422374411
3519128966 0.8710372580 -0.0705596971 -0.0181520398 -0.0088815811 -0.0188364550 -0.0080361516 0.9043749274 -0.2399721286
3522133473 0.8842602338 -0.0516104990 -0.0188222630 -0.0082100090 -0.0194683835 -0.0071893410 0.9066732982 -0.2510022851
3525137980 0.8970449819 -0.0555264486 -0.0196125149 -0.0083765737 -0.0202306408 -0.0073059563 0.9056284826 -0.2512432005
3528142487 0.8986478088 -0.0688257384 -0.0203074329 -0.0066154537 -0.0206966547 -0.0057868548 0.9055826553 -0.2394316794
3531146994 0.8961298461 -0.0749889377 -0.0175970211 -0.0057078537 -0.0181107007 -0.0047794433 0.9024358792 -0.2466597239
3534151501 0.8830195596 -0.0932926772 -0.0162291492 -0.0082773242 -0.0167924920 -0.0073965374 0.9022204522 -0.2550490943
3537156008 0.8556073537 -0.0337352112 -0.0177237284 -0.0101541762 -0.0184021267 -0.0091665533 0.9044627387 -0.2358531958
3540160515 0.8872660316 -0.0512622035 -0.0186437470 -0.0097493060 -0.0193296871 -0.0084288473 0.9050555128 -0.2485244258
3543165022 0.8877455933 -0.0532231556 -0.0192267091 -0.0096408290 -0.0197434774 -0.0085276057 0.9024510570 -0.2511019495
3546169529 0.8940319471 -0.0546627479 -0.0200471867 -0.0093800518 -0.0204872982 -0.0084056094 0.9077733982 -0.2462729789
3549174036 0.8977552152 -0.0683805008 -0.0199416148 -0.0079730039 -0.0203149511 -0.0069371367 0.9078217012 -0.2473309092
3552178543 0.8904838547 -0.0765373119 -0.0179923445 -0.0074496673 -0.0183952918 -0.0065304964 0.8996864663 -0.2486887065
3555183050 0.8738455039 -0.0740706501 -0.0171617849 -0.0094900685 -0.0176325693 -0.0084746155 0.8986557957 -0.2481994904
3558187557 0.8643828367 -0.0410440769 -0.0182284014 -0.0107386288 -0.0188441710 -0.0094053506 0.8991140137 -0.2479271602
3561192064 0.8963220379 -0.0498828631 -0.0192093499 -0.0100236697 -0.0197445372 -0.0087797704 0.9012923499 -0.2415571624
3564196571 0.8887220823 -0.0685918216 -0.0185821161 -0.0101525244 -0.0190371556 -0.0090786616 0.9062586131 -0.2497592025
3567201078 0.8797340226 -0.0644571162 -0.0191540718 -0.0107922822 -0.0195685703 -0.0096675518 0.9063950953 -0.2484941717
3570205585 0.8950605540 -0.0553139579 -0.0194307602 -0.0108667674 -0.0197586123 -0.0095270733 0.9051732216 -0.2536679647
3573210092 0.8976873072 -0.0591378273 -0.0204733532 -0.0106058988 -0.0206711070 -0.0094356942 0.9037925309 -0.2493449425
3576214599 0.8932125109 -0.0729861307 -0.0201909450 -0.0083888937 -0.0203884827 -0.0072720431 0.8984714326 -0.2502649424
3579219106 0.8868730568 -0.0787518106 -0.0175787171 -0.0093373393 -0.0178123246 -0.0082349462 0.9015581587 -0.2443373979
3582223613 0.8549262008 -0.0577301979 -0.0177140461 -0.0125881624 -0.0181208564 -0.0114891555 0.9018218400 -0.2358874799
3585228120 0.8890413092 -0.0424005740 -0.0193560161 -0.0126436147 -0.0196926105 -0.0111175887 0.9043017714 -0.2409252763
3588232627 0.8904047063 -0.0598685032 -0.0200208090 -0.0122106445 -0.0202075209 -0.0108573551 0.9040595356 -0.2484060112
3591237134 0.8980933322 -0.0537330503 -0.0204407221 -0.0126109462 -0.0206013448 -0.0112218116 0.9084139792 -0.2421348133
3594241641 0.8995899708 -0.0616416664 -0.0213181430 -0.0119203177 -0.0212950057 -0.0104668436 0.9023250397 -0.2515011514
3597246148 0.8991680957 -0.0676199288 -0.0203185535 -0.0100910260 -0.0203693345 -0.0088374480 0.9035742145 -0.2360746082
3600250655 0.8857782639 -0.0832936153 -0.0183312885 -0.0110150077 -0.0182608655 -0.0100296568 0.9031381013 -0.2440862423
3603255162 0.8578351618 -0.0560167645 -0.0183783699 -0.0132947740 -0.0185716740 -0.0119439263 0.8963140892 -0.2391270781
3606259669 0.8937334727 -0.0452945193 -0.0199038989 -0.0142265321 -0.0199746631 -0.0127618522 0.9009174043 -0.2423833408
3609264176 0.8973073118 -0.0627196561 -0.0212401335 -0.0136291552 -0.0210863317 -0.0123610923 0.9067524527 -0.2393839830
3612268683 0.8962560988 -0.0620735868 -0.0205299116 -0.0131310955 -0.0205222686 -0.0118249045 0.9112605959 -0.2357851080
3615273190 0.8883840913 -0.0652768507 -0.0206589373 -0.0139092134 -0.0205478400 -0.0125762468 0.9019568778 -0.2419083901
3618277697 0.8922500080 -0.0619415026 -0.0213331431 -0.0137530713 -0.0210628386 -0.0124736207 0.9051969961 -0.2418798042
3621282204 0.8971207002 -0.0675593879 -0.0216372322 -0.0132707499 -0.0213007067 -0.0118289624 0.9040869964 -0.2448333882
3624286711 0.8864234714 -0.0702319562 -0.0203010938 -0.0125141895 -0.0200998834 -0.0111547427 0.8950592999 -0.2432305302
3627291218 0.8865722894 -0.0658698815 -0.0191229807 -0.0144071276 -0.0189981150 -0.0130265042 0.9019432597 -0.2492519817
3630295725 0.8793854822 -0.0539099066 -0.0203100866 -0.0159497420 -0.0201019520 -0.0145347191 0.9026514313 -0.2352527846
3633300232 0.8905155101 -0.0591544318 -0.0214927241 -0.0161820361 -0.0211801602 -0.0148385733 0.9112953108 -0.2338148093
3636304739 0.8907141320 -0.0649628985 -0.0224170623 -0.0158093764 -0.0219861156 -0.0144261902 0.9083269306 -0.2442164860
3639309246 0.8958680801 -0.0662329801 -0.0231569722 -0.0157669143 -0.0225968576 -0.0145455305 0.9115191667 -0.2324895418
3642313753 0.8965470512 -0.0657059683 -0.0236366349 -0.0142174552 -0.0230125041 -0.0129071605 0.9034788072 -0.2435144475
3645318260 0.8908259161 -0.0827430737 -0.0213956191 -0.0136962788 -0.0208480820 -0.0124091859 0.9027813143 -0.2456373806
3648322767 0.8649657363 -0.0777099336 -0.0199920517 -0.0156100063 -0.0196626579 -0.0142487918 0.8970076802 -0.2430372335
3651327274 0.8820044060 -0.0571070032 -0.0217966278 -0.0176676200 -0.0211180070 -0.0164061407 0.9018476355 -0.2301160707
3654331781 0.8880275682 -0.0594629590 -0.0230273776 -0.0183992646 -0.023749591 -0.0170475400 0.9052370999 -0.2379359224
3657336288 0.8909625524 -0.0626113387 -0.0248814830 -0.0172254984 -0.0241392676 -0.0157443225 0.9094392793 -0.2380724667
3660340795 0.8919435517 -0.0727475229 -0.0245270328 -0.0165769591 -0.0236599113 -0.0153501463 0.9068882804 -0.2430227537
3663345302 0.8847497280 -0.0710017777 -0.0251824834 -0.0170408354 -0.0243039971 -0.0155783808 0.9031369188 -0.2423026567
3666349809 0.8880138192 -0.0679592758 -0.0251940460 -0.0157480104 -0.0240782677 -0.0145461573 0.9018824609 -0.2412680009
3669354316 0.8842118147 -0.0760996221 -0.0241435540 -0.0171667661 -0.0232029320 -0.0158867314 0.8988132810 -0.2387986388
3672358823 0.8792519834 -0.0680091436 -0.0246649417 -0.0172670970 -0.0235933869 -0.0160898105 0.8965120401 -0.2359861374
3675363330 0.8825369997 -0.0683815274 -0.0239677802 -0.0178983554 -0.0229685017 -0.0166046194 0.9000957532 -0.2352090273
3678367837 0.8759674013 -0.0619823050 -0.0255549769 -0.0198829417 -0.0244480350 -0.0185043485 0.9032608037 -0.2307914763
3681372344 0.8792324907 -0.0579314521 -0.0266533495 -0.0197159546 -0.0253114299 -0.0184060767 0.9076397812 -0.2323851006
3684376851 0.8868522414 -0.0600666429 -0.0279557625 -0.0191198989 -0.0264191709 -0.0178105380 0.9031879961 -0.2408734459
3687381358 0.8868276545 -0.0700638042 -0.0289462354 -0.0181159391 -0.0273268776 -0.0171068775 0.8963615295 -0.2449517004
3690385865 0.8860181721 -0.0751388169 -0.0272662929 -0.0162842162 -0.0259107852 -0.0152648814 0.8969982616 -0.2374119736
3693390372 0.8746417186 -0.0851625127 -0.0258449448 -0.0171515321 -0.0244366065 -0.0161820936 0.8922685227 -0.2361945192
3696394879 0.8644042875 -0.0559765850 -0.0262738497 -0.0209437477 -0.0245751569 -0.0197538487 0.8879384930 -0.2317152276
3699399386 0.8758686193 -0.0631788169 -0.0283159738 -0.0210595236 -0.0268079587 -0.0198042471 0.8982980334 -0.2322141512
3702403893 0.8736216587 -0.0652603742 -0.0301226101 -0.0202739467 -0.0283326182 -0.0193791406 0.9029222104 -0.2310526809
3705408400 0.8801158997 -0.0599154338 -0.0306638096 -0.0201993471 -0.0287066023 -0.0191844329 0.9016702308 -0.2359281121
3708412907 0.8837574328 -0.0657328948 -0.0314729456 -0.0191521750 -0.0295029505 -0.0184278337 0.8979674900 -0.2368742017
3711417414 0.8763019225 -0.0706715347 -0.0311834992 -0.0181753877 -0.0292649324 -0.0173319438 0.8934110004 -0.2390938139
3714421921 0.8750419097 -0.0683564842 -0.0290180031 -0.0184136756 -0.0271515966 -0.0177999978 0.8913878522 -0.2375441615
3717426428 0.8623144013 -0.0685663828 -0.0302562180 -0.0207450256 -0.0281471315 -0.0204257176 0.8883252625 -0.2366690340
3720430935 0.8739127851 -0.0600432715 -0.0322180425 -0.0197326792 -0.0300636469 -0.0195994298 0.8926681299 -0.2229115306
3723435442 0.8719358656 -0.0695082099 -0.0309971247 -0.0206991958 -0.0289332853 -0.0203371488 0.8953273655 -0.2254994628
3726439949 0.8622055987 -0.0661315698 -0.0331544176 -0.0210980629 -0.0309611099 -0.0207463842 0.8961680431 -0.2285926335
3729444456 0.8680360556 -0.0616619073 -0.0341563907 -0.0198086066 -0.0318575437 -0.0197092503 0.8970402390 -0.2377869075
3732448963 0.8759817776 -0.0618783371 -0.0349035681 -0.0196771305 -0.0326452319 -0.0194506083 0.8920915372 -0.2406163465
3735453470 0.8766743210 -0.0663628708 -0.0362042166 -0.0179366002 -0.0340869525 -0.0179838043 0.8869838651 -0.2383188774
3738457977 0.8710605553 -0.0802151812 -0.0332379778 -0.0170264501 -0.0311192275 -0.0172494268 0.8858913049 -0.2348989551
3741462484 0.8482111124 -0.0720516902 -0.0310770100 -0.0199744153 -0.0288738315 -0.0198946014 0.8836462748 -0.2306230592
3744466991 0.8636902410 -0.0622832379 -0.0351574503 -0.0215939113 -0.0328537684 -0.0219374852 0.8883114392 -0.2230910918
3747471498 0.8602266212 -0.0648800217 -0.0370874620 -0.0198771396 -0.0347900108 -0.0202736554 0.8926053036 -0.2252548799
3750476005 0.8682543598 -0.0654850183 -0.0371213198 -0.0194596444 -0.0346277363 -0.0200963898 0.8961090435 -0.2328061451
3753480512 0.8718042998 -0.0586651698 -0.0385580352 -0.0190997974 -0.0362400393 -0.0199301734 0.8899916844 -0.2344647964
3756485019 0.8723101403 -0.0707975214 -0.0388708190 -0.0161005957 -0.0369292169 -0.0171628129 0.8824498570 -0.2341519528
3759489526 0.8638021344 -0.0790711394 -0.0360911664 -0.0150797155 -0.0340404788 -0.0158899528 0.8809911766 -0.2354150604
3762494033 0.8475825877 -0.0726215890 -0.0357683656 -0.0184130377 -0.0336863148 -0.0192802322 0.8768558490 -0.2272884749
3765498540 0.8551510873 -0.0512583147 -0.0382984182 -0.0195698921 -0.0361021374 -0.0207870153 0.8790886924 -0.2260788710
3768503047 0.8628065459 -0.0652872457 -0.0391547618 -0.0178044993 -0.0370723713 -0.0189843133 0.8844983676 -0.2211135897
3771507554 0.8577534330 -0.0662756036 -0.0394297056 -0.0176047670 -0.0373733636 -0.0187920667 0.8885902786 -0.2289681744
3774512061 0.8487358960 -0.0554009119 -0.0402519256 -0.0175134912 -0.0382531934 -0.0187017896 0.8862112512 -0.2288016015
3777516568 0.8628401608 -0.0563356937 -0.0409172408 -0.0163075773 -0.0389203817 -0.0178645109 0.8848714393 -0.2311626233
3780521075 0.8672907934 -0.0576319793 -0.0417099005 -0.0159052629 -0.0398295351 -0.0173020642 0.8779030009 -0.2295025391
3783525582 0.8625026250 -0.0706947213 -0.0401499490 -0.0122615359 -0.0387618016 -0.0138227064 0.8736965450 -0.2288969453
3786530089 0.8527838055 -0.0755946254 -0.0371256868 -0.0138643796 -0.0357756970 -0.0150331272 0.8766302905 -0.2230524583
3789534596 0.8431808412 -0.0579732131 -0.0396166024 -0.0178017241 -0.0379405028 -0.0193115528 0.8760210472 -0.2168496931
3792539103 0.8493183569 -0.0629535771 -0.0420333570 -0.0159011601 -0.0405420796 -0.0174490332 0.8804362647 -0.2229694088
3795543610 0.8504420989 -0.0514531841 -0.0419677560 -0.0148441183 -0.0404281268 -0.0165821711 0.8857498170 -0.2210858049
3798548117 0.8609184135 -0.0486115197 -0.0430111898 -0.0145380116 -0.0415325329 -0.0165533988 0.8805640577 -0.2328278376
3801552624 0.8651104540 -0.0586787303 -0.0443367119 -0.0120384978 -0.0431374028 -0.0141524381 0.8752316041 -0.2300851085
3804557131 0.8628711056 -0.0705581287 -0.0411521501 -0.0092060345 -0.0403474470 -0.0111220938 0.8741014125 -0.2237940940
3807561638 0.8501816777 -0.0756025077 -0.0381630456 -0.0122264112 -0.0372048318 -0.0136765198 0.8703421628 -0.2226543918
3810566145 0.8344276831 -0.0507317969 -0.0409858228 -0.0142281179 -0.0399481944 -0.0158909447 0.8698519178 -0.2133727347
3813570652 0.8524345497 -0.0558460315 -0.0421620653 -0.0138101585 -0.0412723827 -0.0159784073 0.8782762690 -0.2066617857
3816575159 0.8435487362 -0.0505562664 -0.0432453768 -0.0117388221 -0.0423369703 -0.0136123956 0.8808200764 -0.2138863502
3819579666 0.8556703784 -0.0528291888 -0.0428907649 -0.0111741406 -0.0423855913 -0.0128304557 0.8802158876 -0.2210210981
3822584173 0.8509611272 -0.0576081510 -0.0426985738 -0.0105152405 -0.0422862047 -0.0121875472 0.8751446634 -0.2226316242
3825588680 0.8561760920 -0.0538122913 -0.0426725116 -0.0082932487 -0.0423944743 -0.0106072546 0.8733438395 -0.2210786778
3828593187 0.8588383324 -0.0659628524 -0.0419512701 -0.0088128780 -0.0417318697 -0.0107897641 0.8708209448 -0.2230815617
3831597694 0.8444738161 -0.0652020590 -0.0402354084 -0.0083806836 -0.0399480429 -0.0098632469 0.8665963930 -0.2118339783
3834602201 0.8393154825 -0.0612254925 -0.0396603441 -0.0108878180 -0.0392306125 -0.0122802013 0.8723081474 -0.2133524794
3837606708 0.8374792390 -0.0518400676 -0.0421380295 -0.0116810564 -0.0418765081 -0.0132873071 0.8774379169 -0.2051711753
3840611215 0.8376870928 -0.0490957246 -0.0425403429 -0.0093208574 -0.0423558000 -0.0112213908 0.8798743666 -0.2100393290
3843615722 0.8481696727 -0.0357575395 -0.0427986346 -0.0089909679 -0.0427268586 -0.0105723702 0.8844749987 -0.2135479988
3846620229 0.8601856098 -0.0476158314 -0.0435975249 -0.0080497432 -0.0436841450 -0.0096661890 0.8783266203 -0.2194498386
3849624736 0.8610754367 -0.0586139039 -0.0415990434 -0.0048763728 -0.0419512076 -0.0062415697 0.8710889302 -0.2132126312
3852629243 0.8526815784 -0.0728591969 -0.0387218401 -0.0056934091 -0.0389799896 -0.0071497033 0.8724854532 -0.2127692052
3855633750 0.8150408588 -0.0659430375 -0.0385732313 -0.0095154235 -0.0386657545 -0.0107939393 0.8673161855 -0.2109476615
3858638257 0.8397476239 -0.0434357592 -0.0409825824 -0.0090334238 -0.0412239818 -0.0106842264 0.8765598151 -0.2023144669
3861642764 0.8353215337 -0.0565749319 -0.0419818017 -0.0082043369 -0.0422772395 -0.0099946203 0.8834180264 -0.2043698068
3864647271 0.8484795959 -0.0401356456 -0.0420784210 -0.0069623161 -0.0425048839 -0.0086332736 0.8855405389 -0.2126476819
3867651778 0.8554422546 -0.0528058070 -0.0415135887 -0.0059645695 -0.0420528760 -0.0074735412 0.8776996483 -0.2158863154
3870656285 0.8477466069 -0.0539775764 -0.0412857580 -0.0058628748 -0.0417814632 -0.0067054772 0.8737440109 -0.2162384182
3873660792 0.8488634889 -0.0578316080 -0.0397072936 -0.0047252306 -0.0404529960 -0.0058753084 0.8745370620 -0.2143373948
3876665299 0.8392604582 -0.0715413851 -0.0384556361 -0.0067640850 -0.0390192267 -0.0079763631 0.8736396010 -0.2073854005
3879669806 0.8341952785 -0.0466228759 -0.0394255860 -0.0067007311 -0.0400850574 -0.0078846818 0.8740888781 -0.2010140317
3882674313 0.8363239244 -0.0523240231 -0.0391059524 -0.0072813959 -0.0397674495 -0.0084490389 0.8800761574 -0.2041463147
3885678820 0.8309955295 -0.0465388437 -0.0405577436 -0.0072457629 -0.0411525300 -0.0083354737 0.8838837927 -0.2040026631
3888683327 0.8365845601 -0.0356206298 -0.0405051930 -0.0067346561 -0.0412983061 -0.0078368377 0.8841498521 -0.2105602196
3891687834 0.8532550274 -0.0390196431 -0.0409952031 -0.0058360596 -0.0418328717 -0.0067151525 0.8821280413 -0.2140614148
3894692341 0.8575167455 -0.0485643909 -0.0410251620 -0.0044747227 -0.0418480430 -0.0051037047 0.8752686363 -0.2137831487
3897696848 0.8502399588 -0.0635567215 -0.0382088868 -0.0038875846 -0.0391093490 -0.0044183695 0.8773244190 -0.2095999487
3900701355 0.8221568489 -0.0832988088 -0.0361988266 -0.0057760647 -0.0370329011 -0.0063634333 0.8683536544 -0.2074586320
3903705862 0.8232564022 -0.0292267982 -0.0384542394 -0.0080264097 -0.0393775515 -0.0089567396 0.8764426506 -0.2025027932
3906710369 0.8335797270 -0.0343274067 -0.0397744016 -0.0077453510 -0.0408583359 -0.0084055193 0.8841878319 -0.1972664751
3909714876 0.8363923355 -0.0335807019 -0.0399666307 -0.0065487295 -0.0409684920 -0.0070267207 0.8841491316 -0.2122730448
3912719383 0.8487058924 -0.0367107526 -0.0403280208 -0.0055260858 -0.0413461313 -0.0062470755 0.8864007915 -0.2126538661
3915723890 0.8528340422 -0.0489120356 -0.0398776999 -0.0052445322 -0.0407972953 -0.0057154596 0.8774585201 -0.2154634672
3918728397 0.8430339571 -0.0582349934 -0.0385004644 -0.0039169318 -0.0395176002 -0.0046930048 0.8769235038 -0.2073115783
3921732904 0.8365900423 -0.0610423135 -0.0366896108 -0.0055157131 -0.0376282879 -0.0059002982 0.8759839109 -0.2073118187
3924737411 0.8125806834 -0.0305231623 -0.0375537739 -0.0078744547 -0.0384416245 -0.0085045155 0.8775218488 -0.1981516077
3927741918 0.8391860525 -0.0416207393 -0.0391886996 -0.0067960344 -0.0401833768 -0.0073638655 0.8822718981 -0.1988362926
3930746425 0.8397079256 -0.0428856083 -0.0386522262 -0.0060599923 -0.0396679577 -0.0063460240 0.8835312583 -0.2030558283
3933750932 0.8332071380 -0.0360461138 -0.0392705347 -0.0065852313 -0.0403958494 -0.0071070696 0.8887004412 -0.2065661072
3936755439 0.8459604013 -0.0337391879 -0.0393265328 -0.0059381502 -0.0405289657 -0.0062054759 0.8830660766 -0.2138610272
3939759946 0.8545517480 -0.0432112971 -0.0397725986 -0.0056916467 -0.0410131949 -0.0061568207 0.8805426735 -0.2174714026
3942764453 0.8506691744 -0.0516681872 -0.0388896532 -0.0039672120 -0.0398503962 -0.0045404775 0.8796356090 -0.2074109831
3945768960 0.8354068966 -0.0724308586 -0.0362466369 -0.0044935202 -0.0371738285 -0.0050552064 0.8774101439 -0.2111908186
3948773467 0.8069757648 -0.0363722279 -0.0365398865 -0.0076113852 -0.0376711185 -0.0078438792 0.8731777495 -0.2035363487
3951777974 0.8349335213 -0.0333487626 -0.0387673779 -0.0076876170 -0.0400086272 -0.0078999949 0.8874145840 -0.1980749221
3954782481 0.8323178281 -0.0332578081 -0.0390352258 -0.0067418481 -0.0400426834 -0.0065632637 0.8845473493 -0.2040907548
3957786988 0.8460958971 -0.0305323597 -0.0392696197 -0.0069439100 -0.0403389115 -0.0068210636 0.8878803474 -0.2126030906
3960791495 0.8539086656 -0.0432781800 -0.0397731424 -0.0061080960 -0.0408805332 -0.0060893014 0.8850614603 -0.2169176344
3963796002 0.8507446669 -0.0554135225 -0.0390294019 -0.0041928864 -0.0401105917 -0.0041361915 0.8736460061 -0.2161001852
3966800509 0.8372612099 -0.0710128712 -0.0367600501 -0.0049615203 -0.0379039510 -0.0048405107 0.8770704949 -0.2184589339
3969805016 0.8053693068 -0.0444756414 -0.0361248253 -0.0077984839 -0.0373581197 -0.0077786336 0.8799013975 -0.2041214187
3972809523 0.8358112128 -0.0343119381 -0.0381794451 -0.0084235841 -0.0392463966 -0.0083695045 0.8816214111 -0.1992283333
3975814030 0.8357429465 -0.0463723739 -0.0390799076 -0.0069954597 -0.0402647762 -0.0072379250 0.8857925962 -0.2081361692
3978818537 0.8420680401 -0.0410814606 -0.0390495488 -0.0066147395 -0.0398893408 -0.0065176076 0.8887488651 -0.2043492120
3981823044 0.8347632438 -0.0521153173 -0.0385299967 -0.0063268203 -0.0395258750 -0.0059878457 0.8790042948 -0.2224099316
3984827551 0.8439207328 -0.0429693152 -0.0392604931 -0.0063899617 -0.0403748084 -0.0061165591 0.8820441314 -0.2161351731
3987832058 0.8445473691 -0.0555109573 -0.0387634189 -0.0058233050 -0.0398855154 -0.0055792841 0.8755387597 -0.2168288449
3990836565 0.8324549378 -0.0646377392 -0.0374137907 -0.0055242444 -0.0383751133 -0.0053040687 0.8756096223 -0.2142867970
3993841072 0.8182925151 -0.0533909233 -0.0360538150 -0.0070234499 -0.0370307914 -0.0069016543 0.8796779726 -0.2061634438
3996845579 0.8285026725 -0.0386450775 -0.0380021174 -0.0090117976 -0.0389037703 -0.0086519852 0.8781157056 -0.2022544172
3999850086 0.8273799801 -0.0421057797 -0.0390129668 -0.0077945265 -0.0401585005 -0.0074522899 0.8861827214 -0.2033299370
4002854593 0.8371555400 -0.0360014707 -0.0391705689 -0.0077990487 -0.0402764907 -0.0074329387 0.8892155097 -0.2130569708
4005859100 0.8445851541 -0.0455603720 -0.0399181533 -0.0071769461 -0.0408383652 -0.0065451985 0.8828759740 -0.2187964527
4008863607 0.8470929174 -0.0570018254 -0.0400109125 -0.0060722424 -0.0409567356 -0.0054099541 0.8772685998 -0.2212045836
4011868114 0.8400060307 -0.0705954049 -0.0375826934 -0.0052326547 -0.0385475937 -0.0047964004 0.8743283618 -0.2174395057
4014872621 0.8065672734 -0.0784834926 -0.0357726481 -0.0064077511 -0.0366627565 -0.0058912961 0.8704052497 -0.2091564938
4017877128 0.8210400557 -0.0257434240 -0.0378217794 -0.0090736852 -0.0389711681 -0.0083846958 0.8777086270 -0.2040657113
4020881635 0.8377807146 -0.0408279346 -0.0392570743 -0.0089495249 -0.0402355698 -0.0081040231 0.8834913020 -0.2058046601
4023886142 0.8313746788 -0.0479081669 -0.0399669421 -0.0078081700 -0.0407870099 -0.0071216759 0.8833016244 -0.2140744919
4026890649 0.8383243538 -0.0566978442 -0.0394953875 -0.0069284689 -0.0404373357 -0.0065193836 0.8833403078 -0.2166995039
4029895156 0.8359345366 -0.0546071903 -0.0393910820 -0.0074948157 -0.0400631405 -0.0068017346 0.8775309787 -0.2242696759
4032899663 0.8363989540 -0.0526741185 -0.0396232954 -0.0064432049 -0.0403190366 -0.0055887913 0.8744416650 -0.2117752812
4035904170 0.8302488355 -0.0809363291 -0.0380814285 -0.0065888937 -0.0386126012 -0.0063845068 0.8715361972 -0.2075375519
4038908677 0.8156325693 -0.0441092610 -0.0379660215 -0.0080156453 -0.0387278324 -0.0069619722 0.8674214788 -0.2158528209
4041913184 0.8239870449 -0.0561152963 -0.0383477494 -0.0080698058 -0.0390921678 -0.0073508730 0.8750355274 -0.2081042745
4044917691 0.8253199054 -0.0492244829 -0.0394721922 -0.0089227014 -0.0402303855 -0.0082312178 0.8798290148 -0.1983685508
4047922198 0.8258363027 -0.0391833765 -0.0400400817 -0.0084611758 -0.0408533112 -0.0073908923 0.8822983284 -0.2167404435
4050926705 0.8406216983 -0.0441086797 -0.0405525154 -0.0081776746 -0.0410823337 -0.0075704021 0.8831988497 -0.2148643898
4053931212 0.8421647824 -0.0586396713 -0.0409027923 -0.0073258216 -0.0414542333 -0.0065609516 0.8748935136 -0.2247812153
4056935719 0.8429431712 -0.0627446924 -0.0401842132 -0.0060240984 -0.0405550213 -0.0052138633 0.8744061744 -0.2120798100
4059940226 0.8264373165 -0.0807341202 -0.0379570834 -0.0062498065 -0.0386173556 -0.0054831158 0.8694538003 -0.2149122519
4062944733 0.8002947245 -0.0384522277 -0.0377569867 -0.0099182804 -0.0381951761 -0.0088400088 0.8698788590 -0.2068493679
4065949240 0.8324477312 -0.0460451096 -0.0398115756 -0.0097427313 -0.0404146609 -0.0086841753 0.8820036203 -0.2061546639
4068953747 0.8302262767 -0.0507681343 -0.0409004967 -0.0091606794 -0.0413309528 -0.0079970631 0.8834252982 -0.2082135939
4071958254 0.8379015359 -0.0546754869 -0.0414298565 -0.0083732850 -0.0415493103 -0.0073151671 0.8813367545 -0.2218020299
4074962761 0.8416291198 -0.0594129862 -0.0413332678 -0.0078233278 -0.0415462919 -0.0068469860 0.8784960704 -0.2212923315
4077967268 0.8371006983 -0.0628500891 -0.0407621172 -0.0076187074 -0.0411547272 -0.0066307529 0.8730629320 -0.2184819669
4080971775 0.8286128757 -0.0758154942 -0.0395810129 -0.0070067609 -0.0398536844 -0.0060013217 0.8702005690 -0.2231984993
4083976282 0.8098723558 -0.0780338531 -0.0385641886 -0.0082347893 -0.0390493788 -0.0074689430 0.8702176854 -0.2145239136
4086980789 0.8335939503 -0.0437301840 -0.0407463472 -0.0099164126 -0.0409239488 -0.0087319224 0.8747547190 -0.2096552627
4089985296 0.8290766708 -0.0674398225 -0.0406675121 -0.0091835817 -0.0408707795 -0.0083436017 0.8764018466 -0.2171988707
4092989803 0.8221491242 -0.0643384455 -0.0413953715 -0.0094558810 -0.0414894212 -0.0083284487 0.8773222991 -0.2216759137
4095994310 0.8286535301 -0.0494130676 -0.0417203352 -0.0090733074 -0.0418490016 -0.0078632467 0.8832863560 -0.2186983870
4098998817 0.8400880546 -0.0650045003 -0.0422651256 -0.0087407368 -0.0424372942 -0.0078506309 0.8810043550 -0.2231320942
4102003324 0.8381315325 -0.0697437525 -0.0429419775 -0.0073911452 -0.0430487505 -0.0065277567 0.8677414119 -0.2282720050
4105007831 0.8301196995 -0.0835105999 -0.0407077392 -0.0066691506 -0.0407761902 -0.0057135808 0.8682620026 -0.2269921722
4108012338 0.7971017535 -0.0785325421 -0.0384873973 -0.0089387414 -0.0388149799 -0.0075122794 0.8627338698 -0.2274088433
4111016845 0.8232002957 -0.0419040791 -0.0415147496 -0.0105229886 -0.0415690150 -0.0094332029 0.8742088927 -0.2114933318
4114021352 0.8268879193 -0.0640934285 -0.0424553297 -0.0100367913 -0.0426317941 -0.0090286245 0.8747774958 -0.2235194864
4117025859 0.8278760162 -0.0530676778 -0.0427527265 -0.0097751906 -0.0427628113 -0.0087796260 0.8827897385 -0.2150900934
4120030366 0.8351816575 -0.0602903814 -0.0435076441 -0.0090117565 -0.0436378151 -0.0076471066 0.8787913767 -0.2294412584
4123034873 0.8354781851 -0.0749298345 -0.0434765875 -0.0078954327 -0.0435048424 -0.0068542529 0.8709603691 -0.2300541028
4126039380 0.8262078831 -0.0913347581 -0.0425132610 -0.0064435501 -0.0425911582 -0.0059053492 0.8681322412 -0.2280075168
4129043887 0.8100404991 -0.0865952391 -0.0409584751 -0.0081098550 -0.0411279921 -0.0065333680 0.8637583556 -0.2282029252
4132048394 0.8104517766 -0.0372923026 -0.0414027996 -0.0109026029 -0.0413528937 -0.0092589289 0.8659778612 -0.2191782507
4135052901 0.8255068001 -0.0649721919 -0.0434842837 -0.0103157620 -0.0435402552 -0.0089223864 0.8707970235 -0.2230858154
4138057408 0.8233850943 -0.0801303424 -0.0437988627 -0.0086250146 -0.0438890691 -0.0074393241 0.8721223299 -0.2286319164
4141061915 0.8183744612 -0.0755854145 -0.0439226797 -0.0094159609 -0.0437057833 -0.0082900229 0.8739102736 -0.2328811750
4144066422 0.8249439022 -0.0741811755 -0.0443682201 -0.0088501924 -0.0441331694 -0.0077951203 0.8710798202 -0.2379811219
4147070929 0.8274760675 -0.0934075485 -0.0449632150 -0.0079001147 -0.0447352679 -0.0071264134 0.8656371417 -0.2359092699
4150075436 0.8245235295 -0.0872245326 -0.0444635751 -0.0069497095 -0.0444242858 -0.0057172251 0.8649833870 -0.2338850517
4153079943 0.8089981842 -0.0872835434 -0.0423751729 -0.0077616086 -0.0422942027 -0.0068220284 0.8634060419 -0.2257745668
4156084450 0.8001770435 -0.0765428751 -0.0427040049 -0.0095015319 -0.0425488287 -0.0083537932 0.8582536604 -0.2357650395
4159088957 0.8155887648 -0.0644364674 -0.0448520015 -0.0103383646 -0.0448184202 -0.0089760931 0.8718838736 -0.2190791408
4162093464 0.8143138525 -0.0670328540 -0.0454111251 -0.0093928342 -0.0452133827 -0.0083633816 0.8726369768 -0.2275334628
4165097971 0.8239444154 -0.0749561668 -0.0459504262 -0.0086765546 -0.0457327209 -0.0074693904 0.8739162336 -0.2366426573
4168102478 0.8253581498 -0.0840269848 -0.0462807164 -0.0079306068 -0.0460551999 -0.0066934395 0.8676544944 -0.2434723070
4171106985 0.8238770062 -0.0898940181 -0.0460509704 -0.0067245517 -0.0459044676 -0.0057432746 0.8603592135 -0.2383013682
4174111492 0.8120802680 -0.1048905959 -0.0439419325 -0.0065424297 -0.0439486017 -0.0053126191 0.8599612340 -0.2463560845
4177115999 0.7782471616 -0.0817498602 -0.0430246636 -0.0088079205 -0.0429089311 -0.0071691488 0.8533884184 -0.2352886724
4180120506 0.8168110236 -0.0725714456 -0.0455445505 -0.0097608847 -0.0452817743 -0.0084872046 0.8612729643 -0.2346423826
4183125013 0.8160480266 -0.0811363577 -0.0470483306 -0.0092754234 -0.0468274622 -0.0080677319 0.8658528682 -0.2338742889
4186129520 0.8170641728 -0.0811628580 -0.0470491577 -0.0077281956 -0.0466558418 -0.0066801438 0.8689101207 -0.2366908038
4189134027 0.8152772805 -0.0824491336 -0.0465585457 -0.0081044815 -0.0461982774 -0.0065203588 0.8659615119 -0.2463702207
4192138534 0.8154288813 -0.0919003252 -0.0474377409 -0.0075310732 -0.0470614875 -0.0061821644 0.8615496135 -0.2531577851
4195143041 0.8171558665 -0.0851840942 -0.0469257076 -0.0068610610 -0.0465695179 -0.0053539546 0.8559433229 -0.2473216974
4198147548 0.8016311163 -0.1057498716 -0.0457350250 -0.0066661198 -0.0453836401 -0.0055240188 0.8572098460 -0.2432424054
4201152055 0.8006065520 -0.0881518004 -0.0454072428 -0.0074604681 -0.0450746772 -0.0061996253 0.8561404288 -0.2388321793
4204156562 0.8035917729 -0.0905994378 -0.0464058457 -0.0085951590 -0.0460399735 -0.0072800485 0.8571087367 -0.2451157273
4207161069 0.8063263760 -0.0832619941 -0.0478553048 -0.0081544798 -0.0475627496 -0.0066804750 0.8646145064 -0.2351932555
4210165576 0.8113279620 -0.0867377327 -0.0483808554 -0.0078062262 -0.0479274121 -0.0067455301 0.8685854817 -0.2395933798
4213170083 0.8152663643 -0.0920001924 -0.0485264144 -0.0063708741 -0.0479834132 -0.0052837903 0.8625662037 -0.2523232496
4216174590 0.8180016880 -0.0905830720 -0.0486218175 -0.0061028587 -0.0481071337 -0.0044969920 0.8573363861 -0.2527613475
4219179097 0.8094856280 -0.1113637343 -0.0470033023 -0.0047338459 -0.0466377745 -0.0035238675 0.8534044207 -0.2517794864
4222183604 0.7804109573 -0.1118987894 -0.0456345421 -0.0054065935 -0.0453870161 -0.0039478161 0.8509519019 -0.2495663369
4225188111 0.7942853665 -0.0809606989 -0.0466569284 -0.0077829850 -0.0460625330 -0.0067425721 0.8533176755 -0.2482843853
4228192618 0.8079832014 -0.0875825591 -0.0484453395 -0.0081034993 -0.0480022219 -0.0066775259 0.8612979348 -0.2430443378
4231197125 0.8069218941 -0.0918183018 -0.0492179926 -0.0067724475 -0.0486794063 -0.0054625236 0.8648844741 -0.2478945272
4234201632 0.8115319424 -0.0946386350 -0.0491150885 -0.0057163791 -0.0485871014 -0.0044378932 0.8623265179 -0.2533068819
4237206139 0.8081583376 -0.1075189536 -0.0483881248 -0.0047149513 -0.0479319344 -0.0033920682 0.8570040040 -0.2631487969
4240210646 0.8055621024 -0.1060667903 -0.0487195605 -0.0044261724 -0.0482583820 -0.0032169528 0.8545427048 -0.2550384006
4243215153 0.8021190985 -0.1098409028 -0.0474091131 -0.0047561887 -0.0470368518 -0.0033982602 0.8526042723 -0.2530997591
4246219660 0.7838603699 -0.1017039950 -0.0470627278 -0.0061306014 -0.0465864029 -0.0046098789 0.8485523883 -0.2558368426
4249224167 0.7989938073 -0.1005936613 -0.0481798220 -0.0058531220 -0.0477493596 -0.0047268230 0.8510709350 -0.2465885712
4252228674 0.7947835449 -0.1043087374 -0.0483911179 -0.0060722421 -0.0479430643 -0.0047726401 0.8548820557 -0.2500437281
4255233181 0.7952519585 -0.0941909540 -0.0491571178 -0.0058737077 -0.0485728117 -0.0043374247 0.8623584438 -0.2509670365
4258237688 0.8071777119 -0.1059484706 -0.0495861385 -0.0051931630 -0.0491506683 -0.0042685151 0.8589522348 -0.2551297242
4261242195 0.8072128027 -0.1106923734 -0.0495978974 -0.0039272528 -0.0490430403 -0.0026034411 0.8530133683 -0.2698150881
4264246702 0.8047792718 -0.1141747965 -0.0490459058 -0.0030212664 -0.0484453541 -0.0016921010 0.8484815106 -0.2634875641
4267251209 0.7915051262 -0.1267690738 -0.0471115269 -0.0032303916 -0.0465234989 -0.0020088271 0.8477482132 -0.2610519140
4270255716 0.7711284588 -0.1011266386 -0.0467228337 -0.0052281573 -0.0460196175 -0.0036470773 0.8456509675 -0.2600471890
4273260223 0.7974360774 -0.0981242030 -0.0486685784 -0.0052269719 -0.0481027984 -0.0041518854 0.8514908554 -0.2534264033
4276264730 0.7936440967 -0.1047264264 -0.0493057561 -0.0050356108 -0.0487103911 -0.0036393919 0.8535069695 -0.2565325700
4279269237 0.7987128268 -0.1066873617 -0.0495899061 -0.0042396280 -0.0488387763 -0.0027613662 0.8556192031 -0.2647514636
4282273744 0.8022412861 -0.1120551532 -0.0494167517 -0.0031670402 -0.0487555260 -0.0018682010 0.8526240448 -0.2671671218
4285278251 0.8009043029 -0.1222497209 -0.0486510828 -0.0025898390 -0.0480902408 -0.0011417466 0.8482891469 -0.2706033641
4288282758 0.7917466606 -0.1267945237 -0.0475781896 -0.0025500730 -0.0470036697 -0.0011067945 0.8461128743 -0.2671791620
4281287265 0.7792698186 -0.1190510754 -0.0466734262 -0.0032261143 -0.0461386357 -0.0019161698 0.8459418131 -0.2596312162
4294291772 0.7924473085 -0.1037489103 -0.0480916739 -0.0051821612 -0.0473930537 -0.0036203339 0.8465227528 -0.2639036925
4297296279 0.7962560985 -0.1149262608 -0.0486206827 -0.036912920 -0.0481243120 -0.0024078486 0.8499589359 -0.2586596146
4300300786 0.7906645441 -0.1257765831 -0.0483393119 -0.0035166601 -0.0477392197 -0.0025756760 0.8543745948 -0.2684629667
4303305293 0.7919611982 -0.1094156081 -0.0487210553 -0.0038012703 -0.0478610756 -0.0025110929 0.8513627934 -0.2679470277
4306309800 0.7984806734 -0.1150218419 -0.0491242808 -0.0038209264 -0.0484640515 -0.0021641282 0.8504715255 -0.2750198149
4309314307 0.7977043833 -0.1248278490 -0.0488031950 -0.0024597091 -0.0481813934 -0.0011734412 0.8459925389 -0.2729258218
4312318814 0.7920843025 -0.1362678910 -0.0473880590 -0.0019306737 -0.0467867530 -0.0006225182 0.8452847998 -0.2705342608
4315323321 0.7727972504 -0.1289915780 -0.0460219920 -0.0036744770 -0.0452292444 -0.0021602056 0.8435209147 -0.2712873535
4318327828 0.7832013516 -0.1088709635 -0.0473295110 -0.0052105347 -0.0467092237 -0.0040005579 0.8440017148 -0.2632238357
4321332335 0.7894323451 -0.1258008062 -0.0485007296 -0.0044468963 -0.0478449137 -0.0034624050 0.8469520415 -0.2649741947
4324336842 0.7896717971 -0.1210504443 -0.0489175376 -0.0038264437 -0.0481464147 -0.0025645842 0.8524955486 -0.2724932103
4327341349 0.7934651554 -0.1212620770 -0.0489261125 -0.0036155314 -0.0482271973 -0.0020658841 0.8489220929 -0.2763424219
4330345856 0.7949815597 -0.1298270142 -0.0485347792 -0.0029418586 -0.0480288983 -0.0015809744 0.8490047812 -0.2751656841
4333350363 0.7906724369 -0.1419534257 -0.0479581309 -0.0016777348 -0.0473704817 -0.0003886416 0.8401893444 -0.2770630172
4336354870 0.7734892850 -0.1394876233 -0.0468929032 -0.0030323876 -0.0463017802 -0.0017523722 0.8400421874 -0.2797812757
4339359377 0.7714151024 -0.1161952875 -0.0467418555 -0.0050172125 -0.0461275037 -0.0037338273 0.8396305568 -0.2680130486
4342363884 0.7889419409 -0.1255254317 -0.0485583148 -0.0047247511 -0.0479130852 -0.0030330894 0.8442193355 -0.2718604555
4345368391 0.7846598845 -0.1336235068 -0.0489917430 -0.0039248208 -0.0482882824 -0.0026227402 0.8452184993 -0.2746747479
4348372898 0.7830164137 -0.1339503954 -0.0485270942 -0.0037509433 -0.0477843111 -0.0022661275 0.8468357976 -0.2783835198
4351377405 0.7854447482 -0.1307354349 -0.0488911467 -0.0035023493 -0.0478936056 -0.0022402776 0.8450148350 -0.2800992210
4354381912 0.7872272758 -0.1351805259 -0.0490007471 -0.0039586831 -0.0482013873 -0.0021622450 0.8395496598 -0.2870792851
4357386419 0.7842345310 -0.1452478759 -0.0485155673 -0.0031349676 -0.0475927907 -0.0018242564 0.8369993439 -0.2820689063
4360390926 0.7712161435 -0.1492403622 -0.0475874563 -0.0029547364 -0.0467809096 -0.0014481598 0.8351834719 -0.2846842658
4363395433 0.7665029668 -0.1344984208 -0.0472529434 -0.0051833720 -0.0464014778 -0.0035799810 0.8363679638 -0.2810582592
4366399940 0.7765772089 -0.1351461348 -0.0487912564 -0.0052257780 -0.0479316244 -0.0039648041 0.8380534279 -0.2788202287
4369404447 0.7765290530 -0.1425410164 -0.0496710862 -0.0046981060 -0.0486798365 -0.0035203931 0.8416851701 -0.2806859488
4372408954 0.7803666278 -0.1407338797 -0.0497311532 -0.0044045634 -0.0488375935 -0.0028924234 0.8432768285 -0.2866399668
4375413461 0.7818764838 -0.1434847017 -0.0496597988 -0.0035878455 -0.0486875190 -0.0025659674 0.8399693711 -0.2871545221
4378417968 0.7810271668 -0.1515891977 -0.0496718474 -0.0026089623 -0.0487010280 -0.0014698844 0.8322117817 -0.2922014735
4381422475 0.7743580469 -0.1590720714 -0.0486615048 -0.0039125027 -0.0477002326 -0.0021104479 0.8344953056 -0.2893953213
4384426982 0.7512674652 -0.1492332781 -0.0477336780 -0.0042628904 -0.0467973655 -0.0029832088 0.8269185209 -0.2909232881
4387431489 0.7713361503 -0.1388348188 -0.0493136378 -0.0055062528 -0.0481859426 -0.0044326791 0.8339365213 -0.2825278495
4390435996 0.7757145463 -0.1468861334 -0.0503219758 -0.0055429484 -0.0492953942 -0.0039166565 0.8369123319 -0.2840143906
4393440503 0.7724123989 -0.1506965830 -0.0505764842 -0.0044887011 -0.0495512808 -0.0030674623 0.8370014012 -0.2916597555
4396445010 0.7739639741 -0.1500669311 -0.0502130103 -0.0036417772 -0.0491926436 -0.0022298700 0.8352226868 -0.2906858854
4399449517 0.7708229547 -0.1552239782 -0.0503284588 -0.0046118369 -0.0491795636 -0.0034282425 0.8339111025 -0.2965255004
4402454024 0.7700823600 -0.1555619463 -0.0505236922 -0.0038837534 -0.0493800096 -0.0024253946 0.8283948580 -0.2949561826
4405458531 0.7667289237 -0.1637222014 -0.0499649010 -0.0045054510 -0.0488121449 -0.0030848124 0.8287350908 -0.2946028611
4408463038 0.7597466174 -0.1529524754 -0.0499012450 -0.0046791673 -0.0486609735 -0.0034347757 0.8251553212 -0.2931816892
4411467545 0.7631120112 -0.1555064273 -0.0501506892 -0.0054445940 -0.0490247272 -0.0040163296 0.8285248414 -0.2983696284
4414472052 0.7646205017 -0.1524520952 -0.0512130998 -0.0054784377 -0.0498818047 -0.0037955354 0.8318724156 -0.2900793172
4417476559 0.7654067154 -0.1533845398 -0.0518961440 -0.0054122709 -0.0505744137 -0.0037470435 0.8330360795 -0.2954594930
4420481066 0.7687156979 -0.1610339883 -0.0524000696 -0.0047329726 -0.0509338820 -0.0033369339 0.8318554444 -0.3006594496
4423485573 0.7673059786 -0.1667447171 -0.0523168732 -0.0040917773 -0.0509229428 -0.0025532709 0.8256467555 -0.3068643614
4426490080 0.7654586742 -0.1727673024 -0.0517543874 -0.0039936452 -0.0503789148 -0.0026940217 0.8219916382 -0.3048592534
4429494587 0.7509839903 -0.1779477514 -0.0509525210 -0.0044504053 -0.0494615899 -0.0033145463 0.8237881543 -0.3013617004
4432499094 0.7489234017 -0.1621189831 -0.0514077729 -0.0057360541 -0.0497760714 -0.0044301657 0.8201466169 -0.2990275510
4435503601 0.7620109754 -0.1610818445 -0.0526712059 -0.0055489006 -0.0512706399 -0.0041347468 0.8234575642 -0.2995969418
4438508108 0.7576847990 -0.1688970696 -0.0535554446 -0.0051836431 -0.0519023581 -0.0040851244 0.8258448870 -0.3019623728
4441512615 0.7606325015 -0.1665045210 -0.0538481706 -0.0048268824 -0.0521633330 -0.0035846512 0.8276191996 -0.3054709645
4444517122 0.7619543010 -0.1704239902 -0.0538131864 -0.0038108650 -0.0520398801 -0.0024591854 0.8252778413 -0.3098448929
4447521629 0.7571326650 -0.1791513840 -0.0535194261 -0.0042872899 -0.0518292931 -0.0032639145 0.8158075767 -0.3181464024
4450526136 0.7527407388 -0.1795383663 -0.0535628173 -0.0037447673 -0.0518245000 -0.0023374110 0.8153124015 -0.3109121667
4453530643 0.7436014257 -0.1775884237 -0.0532665225 -0.0043265275 -0.0513606521 -0.0032394309 0.8150326896 -0.3077047566
4456535150 0.7542341479 -0.1686928148 -0.0543715932 -0.0053860375 -0.0525787219 -0.0038947294 0.8169186111 -0.3080990161
4459539657 0.7506822320 -0.1777058294 -0.0546526292 -0.0043823050 -0.0528315800 -0.0031461160 0.8171501563 -0.3113065047
4462544164 0.7470254835 -0.1776676663 -0.0554832032 -0.0043863250 -0.0535845631 -0.0025443581 0.8141595180 -0.3138807323
4465548671 0.7561459331 -0.1761211593 -0.0558882170 -0.0044511650 -0.0539022224 -0.0027461411 0.8146888529 -0.3182653830
4468553178 0.7533842550 -0.1802347872 -0.0562703921 -0.0038924122 -0.0542402634 -0.0026773410 0.8159176663 -0.3189688832
4471557685 0.7473195117 -0.1839689872 -0.0559862836 -0.0026554534 -0.0540233533 -0.0014951096 0.8064997317 -0.3183818547
4474562192 0.7442749198 -0.1925726922 -0.0554128790 -0.0033284904 -0.0533445166 -0.0019454806 0.8044833217 -0.3186691478
4477566699 0.7290267185 -0.1859913380 -0.0550160692 -0.0039444280 -0.0528820462 -0.0028061552 0.8039578700 -0.3188328069
4480571206 0.7392380953 -0.1842267120 -0.0564766569 -0.0047451906 -0.0542724725 -0.0036643774 0.8078493999 -0.3166112972
4483575713 0.7402466232 -0.1841837514 -0.0574352103 -0.0035351717 -0.0552184883 -0.0029382940 0.8117135956 -0.3102376882
4486580220 0.7392854554 -0.1889982662 -0.0578438681 -0.0032066794 -0.0555384450 -0.0020582681 0.8041716705 -0.3275450125
4489584727 0.7426834324 -0.1853586876 -0.0581942767 -0.0029040837 -0.0558867522 -0.0019725019 0.8084246771 -0.3200923172
4492589234 0.7384397818 -0.1945019656 -0.0579658842 -0.0018779883 -0.0555994446 -0.0008595773 0.7982750572 -0.3269641503
4495593741 0.7327552409 -0.1992101989 -0.0577113855 -0.0020043513 -0.0554351209 -0.0009537445 0.7901754579 -0.3292392749
4498598248 0.7267974275 -0.1961887742 -0.0575382617 -0.0014358644 -0.0551342632 -0.0008900503 0.7987578653 -0.3223963585
4501602755 0.7277041733 -0.1897335559 -0.0580126909 -0.0026976627 -0.0554872984 -0.0023599245 0.7961039574 -0.3208877357
4504607262 0.7323266112 -0.1904138696 -0.0593366947 -0.0019089875 -0.0568089880 -0.0011871583 0.7957446812 -0.3210266971
4507611769 0.7305689099 -0.1945880862 -0.0591094584 -0.0010196463 -0.0566136340 -0.0000929470 0.7953290399 -0.3239928819
4510616276 0.7304241461 -0.1906556881 -0.0596648791 -0.0017002836 -0.0571023402 -0.0012480212 0.7980470600 -0.3238883993
4513620783 0.7309687996 -0.1902350342 -0.0602398876 -0.0009772615 -0.0575583811 -0.0001722382 0.7948706216 -0.3258163898
4516625290 0.7305895477 -0.1978597827 -0.0603006991 -0.0003103188 -0.0577303261 0.0003040065 0.7889847091 -0.3305025308
4519629797 0.7314506392 -0.1968320082 -0.0600052268 0.0003714288 -0.0574756235 0.0007486830 0.7893185287 -0.3269113458
4522634304 0.7195246965 -0.2032462851 -0.0594710426 0.0008292843 -0.0568453738 0.0010857911 0.7867834823 -0.3284126634
4525638811 0.7240007412 -0.1897242303 -0.0600853641 -0.0007678609 -0.0575004346 0.0000547567 0.7921639015 -0.3195859641
4528643318 0.7335176577 -0.1872782007 -0.0612190163 -0.0009188528 -0.0587288919 -0.0003784453 0.7976018823 -0.3165344786
4531647825 0.7277615512 -0.1975701870 -0.0616910933 0.0004235501 -0.0590793481 0.0008270665 0.7931141551 -0.3249726229
4534652332 0.7271681574 -0.1993977575 -0.0619078530 0.0011201087 -0.0592152163 0.0007677487 0.7962220262 -0.3274467176
4537656839 0.7289152660 -0.2014426318 -0.0623095015 0.0013966134 -0.0596928807 0.0014960257 0.7947471479 -0.3314765305
4540661346 0.7266590044 -0.2079580743 -0.0616968362 0.0025905998 -0.0592308236 0.0028360009 0.7888051306 -0.3350040077
4543665853 0.7198211668 -0.2160037039 -0.0615159648 0.0025621815 -0.0590201392 0.0023408646 0.7921083078 -0.3296510613
4546670360 0.7167409082 -0.2077360671 -0.0613920980 0.0023983456 -0.0589047971 0.0023696970 0.7871144186 -0.3353987179
4549674867 0.7222921860 -0.2038587365 -0.0624569936 0.0022030126 -0.0600054255 0.0018109922 0.7902531745 -0.3331988724
4552679374 0.7216885332 -0.2095408931 -0.0633209079 0.0029082072 -0.0608734139 0.0027833301 0.7896939117 -0.3357809630
4555683881 0.7184215203 -0.2159625134 -0.0629148117 0.0045105809 -0.0606592750 0.0037858799 0.7947288600 -0.3343307883
4558688388 0.7231177377 -0.2107949385 -0.0629975560 0.0046670374 -0.0608572820 0.0037560262 0.7915037277 -0.3425235518
4561692895 0.7194810063 -0.2141126440 -0.0634316189 0.0048520334 -0.0611446632 0.0046702125 0.7869272078 -0.3435480363
4564697402 0.7188510836 -0.2214722013 -0.0631476780 0.0058040710 -0.0609251666 0.0053594982 0.7856162571 -0.3440018451
4567701909 0.7153062443 -0.2242089758 -0.0627021200 0.0059761613 -0.0605582110 0.0052836529 0.7859657104 -0.3447570554
4570706416 0.7099015964 -0.2230219401 -0.0624580791 0.0064649113 -0.0604189561 0.0054790493 0.7845804351 -0.3415300050
4573710923 0.7149234012 -0.2178576244 -0.0629799040 0.0058040146 -0.0610049716 0.0056515109 0.7826458287 -0.3458852759
4576715430 0.7133284215 -0.2229992778 -0.0638163189 0.0063495757 -0.0619155070 0.0056648075 0.7840257911 -0.3480684128
4579719937 0.7134282170 -0.2222201756 -0.0637618584 0.0073984064 -0.0618681041 0.0070941065 0.7807594196 -0.3560177216
4582724444 0.7109798972 -0.2250198871 -0.0635287025 0.0081638279 -0.0619142293 0.0072913237 0.7838207403 -0.3507970795
4585728951 0.7110004923 -0.2321689734 -0.0633684705 0.0089292352 -0.0617577905 0.0080005435 0.7825372797 -0.3531450748
4588733458 0.7087332093 -0.2364011815 -0.0632481423 0.0093797652 -0.0615802389 0.0084143306 0.7779586327 -0.3558513535
4591737965 0.7033432783 -0.2332929195 -0.0625454407 0.0091501751 -0.0610081870 0.0084943570 0.7804428832 -0.3483723906
4594742472 0.7025088642 -0.2312451864 -0.0629266831 0.0085956297 -0.0615138225 0.0078116020 0.7753738853 -0.3553491702
4597746979 0.7019511860 -0.2386282481 -0.0631623533 0.0098775771 -0.0617536448 0.0088782463 0.7738306619 -0.3614651511
4600751486 0.7079598995 -0.2304879168 -0.0637625579 0.0095180566 -0.023914602 0.0088882733 0.7816869080 -0.3551695826
4603755993 0.6990342817 -0.2407990529 -0.0632305209 0.0112717808 -0.0619518499 0.0105654688 0.7725820638 -0.3662469561
4606760500 0.6940863625 -0.2527027391 -0.0627119300 0.0117387799 -0.0616584926 0.0104898553 0.7679511198 -0.3740743624
4609765007 0.6986341337 -0.2454002961 -0.0628005712 0.0116624699 -0.0619151658 0.0106654604 0.7710823342 -0.3696091297
4612769514 0.6988994033 -0.2448920080 -0.0624716460 0.0124197332 -0.0615894590 0.0113974998 0.7713120816 -0.3673958059
4615774021 0.6918504958 -0.2494818971 -0.0621081706 0.0129006373 -0.0611536712 0.0120544923 0.7668658859 -0.3717182049
4618778528 0.6958666589 -0.2452887198 -0.0622304340 0.0126178277 -0.0612262153 0.0117093522 0.7711446149 -0.3649349503
4621783035 0.6967074770 -0.2458317619 -0.0622613904 0.0132878788 -0.0617223172 0.0116179154 0.7699026669 -0.3699041225
4624787542 0.6953065965 -0.2454919610 -0.0626964118 0.0132410515 -0.0618933806 0.0125062358 0.7719632250 -0.3709735528
4627792049 0.6906196036 -0.2525922129 -0.0623098257 0.0137465471 -0.0618018051 0.0124738879 0.7701108305 -0.3729150541
4630796556 0.6941458620 -0.2451640576 -0.0620324384 0.0143397193 -0.0613198024 0.0141196457 0.7664496645 -0.3800687466
4633801063 0.6889338754 -0.2621957962 -0.0611815344 0.0147776408 -0.0607311106 0.0142794338 0.7591053420 -0.3862704684
4636805570 0.6879159409 -0.2579104418 -0.0612336292 0.0149132212 -0.0608359966 0.0145256304 0.7617881715 -0.3806457523
4639810077 0.6879908144 -0.2507295855 -0.0607750370 0.0150399998 -0.0601826332 0.0150187421 0.7601123792 -0.3841256436
4642814584 0.6843685349 -0.2585496825 -0.0607107364 0.0150680208 -0.0604682219 0.0147015238 0.7617312103 -0.3800480302
4645819091 0.6821620225 -0.2658606654 -0.0607779554 0.0158959825 -0.0606269866 0.0149591475 0.7617127809 -0.3838592424
4648823598 0.6813284319 -0.2658079892 -0.0607205265 0.0158028173 -0.0604595832 0.0151629829 0.7599756169 -0.3892426538
4651828105 0.6842987260 -0.2580941091 -0.0606899137 0.0156042854 -0.0604767268 0.0155520477 0.7616717668 -0.3859461179
4654832612 0.6803727906 -0.2752524342 -0.0598550178 0.0166032895 -0.0598445035 0.0160728473 0.7609194797 -0.3897927306
4657837119 0.6799573864 -0.2690557695 -0.0598071190 0.0166288462 -0.0600683525 0.0161470937 0.7589603741 -0.3910542226
4660841626 0.6783172958 -0.2729508865 -0.0592975030 0.0168240078 -0.0591775613 0.0166159945 0.7529734182 -0.3947714350
4663846133 0.6754921261 -0.2744935271 -0.0593455508 0.0169124112 -0.0593164811 0.0167950049 0.7555673567 -0.3934406336
4666850640 0.6763614383 -0.2718735200 -0.0590896979 0.0172482136 -0.0591442074 0.0168961341 0.7537900682 -0.3939719917
4669855147 0.6753840501 -0.2731353584 -0.0588474081 0.0173827590 -0.0591462849 0.0168295562 0.7541168951 -0.3961354815
4672859654 0.6717785291 -0.2786882689 -0.0588734953 0.0170309684 -0.0590831049 0.0169102479 0.7544942458 -0.3968212445
4675864161 0.6713504073 -0.2760130893 -0.0586259071 0.0174032529 -0.0587536056 0.0173261488 0.7529877012 -0.4010176352
4678868668 0.6724952848 -0.2797665465 -0.0581803822 0.0177974181 -0.0584993994 0.0176159724 0.7518041965 -0.4019406389
4681873175 0.6725009217 -0.2838882654 -0.0578040565 0.0183294217 -0.0580266006 0.0182736175 0.7486682418 -0.4026318531
4684877682 0.6685668458 -0.2886603693 -0.0576812761 0.0179016863 -0.0578678436 0.0183704522 0.7497168706 -0.4051772559
4687882189 0.6658649465 -0.2858379627 -0.0573772376 0.0175610546 -0.0577280236 0.0175401512 0.7481523795 -0.4025100713
4690886696 0.6619386283 -0.2925688473 -0.0572498095 0.0180078420 -0.0575670341 0.0181319257 0.7434783591 -0.4103096102
4693891203 0.6615437838 -0.2938940054 -0.0571497709 0.0184285595 -0.0574183446 0.0186789568 0.7459213837 -0.4120455600
4696895710 0.6627037414 -0.2870247719 -0.0571839112 0.0175286825 -0.0575312265 0.0181052849 0.7497217543 -0.4085156166
4699900217 0.6564575840 -0.2933253378 -0.0565638537 0.0188999824 -0.0568819083 0.0193107200 0.7433989841 -0.4136055247
4702904724 0.6578204635 -0.2814930523 -0.0564945472 0.0177912906 -0.0566554006 0.0187010830 0.7440812406 -0.4098529488
4705909231 0.6501960336 -0.2972040501 -0.0556537340 0.0187052388 -0.0561970141 0.0188703539 0.7367614692 -0.4212979081
4708913738 0.6507480821 -0.2968621800 -0.0556037534 0.0184484662 -0.0561831634 0.0186910091 0.7393210825 -0.4173139664
4711918245 0.6466831467 -0.2953653817 -0.0551700441 0.0178816455 -0.0558492947 0.0183886571 0.7373329218 -0.4203079799
4714922752 0.6517611700 -0.2947435264 -0.0554910870 0.0178255742 -0.0560761593 0.0181128143 0.7375796534 -0.4213137548
4717927259 0.6477603942 -0.3047866817 -0.0552315939 0.0182686121 -0.0558355030 0.0187123997 0.7343656927 -0.4215870366
4720931766 0.6458301423 -0.2986559576 -0.0548434099 0.0180243530 -0.0556146762 0.0186225124 0.7331934904 -0.4231103743
4723936273 0.6447836631 -0.2972780513 -0.0549453310 0.0179534253 -0.0553161469 0.0188724495 0.7315648570 -0.4283340614
4726940780 0.6488179876 -0.2984797362 -0.0545607210 0.0184574238 -0.0551546321 0.0190897552 0.7314382056 -0.4266672246
4729945287 0.6531037297 -0.3004704399 -0.0545157597 0.0183651426 -0.0550249829 0.0192083022 0.7307118395 -0.4314829979
4732949794 0.6455601840 -0.3045320246 -0.0542343195 0.0183645207 -0.0549580195 0.0187551330 0.7280264247 -0.4329768127
4735954301 0.6433780044 -0.3067718953 -0.0543418753 0.0174331267 -0.0547012438 0.0182386216 0.7238553624 -0.4315517857
4738958808 0.6413574342 -0.3075695243 -0.0541819373 0.0176976819 -0.0549421442 0.0182477388 0.7267139435 -0.4275578942
4741963315 0.6346542943 -0.3082531567 -0.0536174139 0.0181908336 -0.0541485925 0.0193495486 0.7213134962 -0.4378841835
4744967822 0.6368299321 -0.3060068855 -0.0536324944 0.0177213824 -0.0540680021 0.0187915534 0.7223250903 -0.4373874985
4747972329 0.6358032655 -0.3057731673 -0.0532227629 0.0171851680 -0.0538490588 0.0187974522 0.7175237307 -0.4462596364
4750976836 0.6402339981 -0.3060011019 -0.0537848055 0.0172440449 -0.0540829539 0.0186942427 0.7134269791 -0.4421039262
4753981343 0.6383852983 -0.3165319356 -0.0533486543 0.0177179991 -0.0537362907 0.0188876808 0.7123736729 -0.4470008143
4756985850 0.6325332456 -0.3162681640 -0.0532947685 0.0170686300 -0.0537586760 0.0183962400 0.7114842108 -0.4462050701
4759990357 0.6336410526 -0.3127817866 -0.0531430961 0.0167993236 -0.0536252637 0.0181023805 0.7092009352 -0.4491877141
4762994864 0.6308726821 -0.3198636102 -0.0532185454 0.0170014967 -0.0536483900 0.0180273872 0.7051202520 -0.4504860711
4765999371 0.6271066393 -0.3237277690 -0.0529205170 0.0168371251 -0.0532850990 0.0181937430 0.6973775854 -0.4542092599
4769003878 0.6304472699 -0.3193438568 -0.0532708182 0.0161978675 -0.0535069262 0.0175694642 0.6959588773 -0.4523950805
4772008385 0.6284621127 -0.3207660077 -0.0530162205 0.0163770190 -0.0532654190 0.0179787403 0.6899778657 -0.4549286686
4775012892 0.6287248098 -0.3243179128 -0.0533143093 0.0161945132 -0.0537762628 0.0171755494 0.6849785896 -0.4505227978
4778017399 0.6287987283 -0.3276500418 -0.0533621094 0.0162173262 -0.0534744106 0.0179115795 0.6806800624 -0.4479447410
4781021906 0.6270929174 -0.3262665601 -0.0534690057 0.0162997517 -0.0535913673 0.0174158991 0.6793831123 -0.4417506528
4784026413 0.6225902203 -0.3309144086 -0.0534371949 0.0163105162 -0.0535547911 0.0179701643 0.6779058487 -0.4423910570
4787030920 0.6189843823 -0.3329338596 -0.0534765276 0.0168469055 -0.0536831756 0.0182694196 0.6771181560 -0.4441254321
4790035427 0.6204598403 -0.3245824263 -0.0533544871 0.0168065173 -0.0536167271 0.0180573835 0.6774407594 -0.4358584758
4793039934 0.6212294576 -0.3286232453 -0.0532997492 0.0171421934 -0.0534011848 0.0183820363 0.6781868569 -0.4348427037
4796044441 0.6255068627 -0.3334000606 -0.0531406625 0.0163382033 -0.0531183296 0.0181819059 0.6817178391 -0.4367584310
4799048948 0.6247508160 -0.3342565343 -0.0526761423 0.0162641707 -0.0525368036 0.0180672353 0.6775822964 -0.4362688393
4802053455 0.6175800613 -0.3450484467 -0.0525391274 0.0162823402 -0.0525109563 0.0179204456 0.6717771996 -0.4388988974
4805057962 0.6119200893 -0.3396139082 -0.0520910798 0.0156236858 -0.0521570890 0.0172615257 0.6779836503 -0.4238967391
4808062469 0.6145289057 -0.3366700756 -0.0523751824 0.0152820031 -0.0525756742 0.0169099819 0.6832337620 -0.4276909780
4811066976 0.6124826467 -0.3406747171 -0.0523008273 0.0146436877 -0.0525161764 0.0160948105 0.6874293204 -0.4311069579
4814071483 0.6161032488 -0.3408524292 -0.0529951023 0.0145221053 -0.0529888955 0.0167635254 0.6842590324 -0.4359574854
4817075990 0.6137381280 -0.3441737569 -0.0533054996 0.0146324222 -0.0532884489 0.0164907198 0.6829108920 -0.4365359480
4820080497 0.6135397939 -0.3464159757 -0.0534430835 0.0142987316 -0.0536289720 0.0160072417 0.6896488660 -0.4348520586
4823085004 0.6115507195 -0.3526653850 -0.0539029241 0.0141061556 -0.0540238313 0.0159761578 0.6846448595 -0.4422869509
4826089511 0.6063380391 -0.3567399128 -0.0537167368 0.0143468470 -0.0537913363 0.0165370733 0.6861602475 -0.4421924747
4829094018 0.6019825173 -0.3584586637 -0.0540896705 0.0140745092 -0.0542942813 0.0155640468 0.6867054990 -0.4431712351
4832098525 0.6044865346 -0.3583943492 -0.0543166186 0.0143656836 -0.0543425117 0.0165231385 0.6855659526 -0.4460009522
4835103032 0.5992704133 -0.3579025279 -0.0541110930 0.0139873948 -0.0541074540 0.0162560429 0.6810297386 -0.4480961769
4838107539 0.6009048293 -0.3566951977 -0.0545395049 0.0135766988 -0.0545700513 0.0158017088 0.6834653205 -0.4460741579
4841112046 0.6048354535 -0.3605808451 -0.0552642478 0.0140583681 -0.0555428184 0.0158064908 0.6860619462 -0.4492440094
4844116553 0.6046010710 -0.3669876667 -0.0557849676 0.0146062541 -0.0559176429 0.0163189836 0.6857829611 -0.4561147036
4847121060 0.5986917259 -0.3705449963 -0.0557168371 0.0143724100 -0.0556398595 0.0169266402 0.6807965642 -0.4576521358
4850125567 0.5918450658 -0.3760868090 -0.0557328741 0.0146338498 -0.0559181076 0.0169112367 0.6831595769 -0.4578785234
4853130074 0.5902984335 -0.3696916335 -0.0557314380 0.0141291531 -0.0556856246 0.0163825385 0.6798992550 -0.4583744324
4856134581 0.5895585584 -0.3739711521 -0.0559373057 0.0144334098 -0.0557018254 0.0169587418 0.6755549359 -0.4611466191
4859139088 0.5916186993 -0.3744249158 -0.0563422146 0.0140917467 -0.0561463901 0.0169792037 0.6798687661 -0.4588734764
4862143595 0.5899610149 -0.3777962411 -0.0569822894 0.0133937449 -0.0567853059 0.0161985639 0.6759540382 -0.4618723824
4865148102 0.5872305813 -0.3849654226 -0.0572361747 0.0143588160 -0.0572261873 0.0172087620 0.6776535846 -0.4616691226
4868152609 0.5768901980 -0.3927123985 -0.0570646609 0.0155977336 -0.0571738679 0.0178258974 0.6774677763 -0.4685306314
4871157116 0.5708214460 -0.3974760257 -0.0571523298 0.0154183432 -0.0570809319 0.0183841941 0.6701509497 -0.4740146631
4874161623 0.5669890596 -0.3970823554 -0.0570668066 0.0153861417 -0.0570850121 0.0181230577 0.6701735748 -0.4687495813
4877166130 0.5459925220 -0.4016402424 -0.0568954830 0.0148186826 -0.0571004955 0.0178424203 0.6747656519 -0.4662944844
4880170637 0.5311780148 -0.3917660789 -0.0567510151 0.0152978410 -0.0567948054 0.0184349741 0.6703467773 -0.4732280125
4883175144 0.5262020359 -0.3649763072 -0.0561110570 0.0143135290 -0.0556651040 0.0175852549 0.6651697030 -0.4745393302
4886179651 0.5369919121 -0.3551922167 -0.0574891637 0.0128687391 -0.0569020084 0.0163396782 0.6673957900 -0.4727689472
4889184158 0.5524786398 -0.3419703074 -0.0584066062 0.0129088935 -0.0573400310 0.0164033358 0.6656386820 -0.4758546303
4892188665 0.5684220380 -0.3484953623 -0.0599133044 0.0134681926 -0.0590250187 0.0162546760 0.6633990461 -0.4815508172
4895193172 0.5741155834 -0.3717007799 -0.0602094688 0.0145984674 -0.0594946883 0.0174587823 0.6614463906 -0.4811123921
4898197679 0.5564556503 -0.3760150934 -0.0598302392 0.0143061812 -0.0591069710 0.0178859704 0.6592753644 -0.4827764173
4901202186 0.5595892375 -0.3613751393 -0.0601661860 0.0137819178 -0.0589935413 0.0169519782 0.6558563993 -0.4842193490
4904206693 0.5685936589 -0.3670703146 -0.0612179948 0.0148637436 -0.0600751666 0.0180115879 0.6534235838 -0.4845930147
4907211200 0.5749551086 -0.3720563663 -0.0618101987 0.0141369026 -0.0607940952 0.0177347512 0.6639542729 -0.4848196754
4910215707 0.5655420990 -0.3752860373 -0.0625721583 0.0150344337 -0.0614899980 0.0180835905 0.6572103573 -0.4833740515
4913220214 0.5740930883 -0.3807295038 -0.0633240304 0.0154145111 -0.0619069648 0.0187175046 0.6590290690 -0.4876104976
4916224721 0.5693977655 -0.3906750437 -0.0631131648 0.0165091001 -0.0619041194 0.0199335420 0.6539326798 -0.4947884172
4919229228 0.5566253249 -0.3915331213 -0.0626621110 0.0164568403 -0.0616288155 0.0197276308 0.6535407925 -0.4918721186
4922233735 0.5545473761 -0.3797112142 -0.0627679051 0.0160664255 -0.0611704442 0.0201061542 0.6484454937 -0.4950473774
4925238242 0.5698940013 -0.3819374150 -0.0643031107 0.0151480411 -0.0627236735 0.0189736256 0.6487634412 -0.4946947851
4928242749 0.5609916924 -0.3914360565 -0.0649285213 0.0168959119 -0.0635403942 0.0200758620 0.6533426246 -0.4944756881
4931247256 0.5573392450 -0.3962096246 -0.0648890809 0.0169742524 -0.0634463380 0.0204818324 0.6492984661 -0.4962223748
4934251763 0.5452138415 -0.3976062692 -0.0651496626 0.0167987092 -0.0634429509 0.0203369945 0.6369186191 -0.5025178010
4937256270 0.5614152067 -0.3970732744 -0.0659935656 0.0183868476 -0.0640970936 0.0223868437 0.6407457821 -0.5060260951
4940260777 0.5471542613 -0.4075526047 -0.0663673986 0.0182841350 -0.0649256594 0.0211430536 0.6442098489 -0.5016449119
4943265284 0.5472507893 -0.4094484433 -0.0663466065 0.0198296099 -0.0642811428 0.0234892296 0.6349319947 -0.5088355937
4946269791 0.5394282404 -0.4027647551 -0.0662762051 0.0191471386 -0.0639148040 0.0231410902 0.6342821261 -0.5074469109
4949274298 0.5422630906 -0.4029418392 -0.0668534742 0.0194130776 -0.0647053137 0.0230014583 0.6315041325 -0.5102035662
4952278805 0.5465701187 -0.4077932917 -0.0678954323 0.0201793166 -0.0657896524 0.0237043478 0.6344013653 -0.5107611183
4955283312 0.5434503354 -0.4145187116 -0.0679541614 0.0211009039 -0.0658375218 0.0241861920 0.6313566841 -0.5178369275
4958287819 0.5409100890 -0.4157247496 -0.0685983986 0.0215961863 -0.0661933298 0.0250532896 0.6302398060 -0.5170959686
4961292326 0.5455902932 -0.4157252772 -0.0692503699 0.0222213489 -0.0666089822 0.0261104577 0.6323500053 -0.5185911311
4964296833 0.5355152745 -0.4238204351 -0.0690306218 0.0225529803 -0.0663123907 0.0267682263 0.6236974164 -0.5224430656
4967301340 0.5254682264 -0.4199666037 -0.0683447705 0.0236976055 -0.0656243449 0.0270899810 0.6220215443 -0.5208329762
4970305847 0.5279544422 -0.4192420380 -0.0692767241 0.0231914049 -0.0662131603 0.0275779739 0.6202182083 -0.5275525586
4973310354 0.5381269807 -0.4220804544 -0.0705821952 0.0240328538 -0.0673660051 0.0277381974 0.6198333039 -0.5249099388
4976314861 0.5297915213 -0.4257083707 -0.0706172289 0.0251733011 -0.0674573444 0.0286703465 0.6161624484 -0.5260815833
4979319368 0.5279384007 -0.4275549015 -0.0703089102 0.0262020326 -0.0665504733 0.0303919576 0.6114235221 -0.5303065440
4982323875 0.5209415026 -0.4311730572 -0.0705448898 0.0266359958 -0.0671150025 0.0297711684 0.6151487245 -0.5322892208
4985328382 0.5258247488 -0.4254669045 -0.0710619183 0.0274051386 -0.0673123988 0.0308389529 0.6119376837 -0.5280563383
4988332889 0.5150039792 -0.4374185598 -0.0710320748 0.0281541667 -0.0676626778 0.0314295798 0.6131815124 -0.5246364566
4991337396 0.5165654429 -0.4307391791 -0.0707732519 0.0289939774 -0.0669709954 0.0321466612 0.6047818012 -0.5298573846
4994341903 0.5141128465 -0.4310433792 -0.0708452609 0.0292762660 -0.0666671633 0.0323866136 0.6027012026 -0.5324769403
4997346410 0.5211344595 -0.4283885398 -0.0718171528 0.0294989099 -0.0674187286 0.0329220068 0.6014052774 -0.5304223613
5000350917 0.5122144807 -0.4384230756 -0.0714899864 0.0309771703 -0.0669734859 0.0343529079 0.5977663757 -0.5330850087
5003355424 0.5102505999 -0.4369884137 -0.0712001564 0.0318521602 -0.0671419947 0.0341142518 0.5986658425 -0.5304344380
5006359931 0.5155236754 -0.4354413856 -0.0716536416 0.0331694133 -0.0672127780 0.0355770068 0.6046563264 -0.5305794110
5009364438 0.5084736159 -0.4442337324 -0.0715520362 0.0337838715 -0.0674104193 0.0359839632 0.6040602346 -0.5313539284
5012368945 0.5060784345 -0.4383470712 -0.0716137515 0.0342670030 -0.0665612384 0.0371745231 0.5976602094 -0.5359741602
5015373452 0.5107439363 -0.4363325175 -0.0708854683 0.0359099618 -0.0660377155 0.0382264754 0.5982161347 -0.5347998461
5018377959 0.5160695145 -0.4381194519 -0.0715938410 0.0359818379 -0.0673453294 0.0373381881 0.6093349500 -0.5359316238
5021382466 0.5148126102 -0.4427969539 -0.0718468617 0.0368707609 -0.0673065483 0.0385057877 0.6081381935 -0.5328710791
5024386973 0.5094281404 -0.4443079783 -0.0717506894 0.0376767019 -0.0668822172 0.0392801958 0.6024200517 -0.5342382198
5027391480 0.5108691997 -0.4471379210 -0.0710723405 0.0392490938 -0.0658578172 0.0410025778 0.6054488453 -0.5381080958
5030395987 0.5105378226 -0.4479192077 -0.0709844728 0.0395268103 -0.0660051809 0.0409857716 0.6088730546 -0.5393990629
5033400494 0.5137355906 -0.4421950465 -0.0712445874 0.0404455987 -0.0660910035 0.0420826439 0.6090627543 -0.5365471922
5036405001 0.5134765485 -0.4452680059 -0.0706625210 0.0414400142 -0.0656240097 0.0428684642 0.6067508593 -0.5391045793
5039409508 0.5094141291 -0.4542846591 -0.0700236949 0.0426783195 -0.0648307875 0.0440401445 0.6032797443 -0.5481812988
5042414015 0.5136343704 -0.4531490392 -0.0699670118 0.0431241189 -0.0650369012 0.0438382159 0.6133381487 -0.5464550171
5045418522 0.5081785556 -0.4567357120 -0.0693242634 0.0442773949 -0.0647784775 0.0443579970 0.6035751232 -0.5500863203
5048423029 0.5095271735 -0.4626935852 -0.0691369013 0.0452963603 -0.0641880669 0.0458418390 0.6073607431 -0.5537089383
5051427536 0.5007322388 -0.4655027961 -0.0683147333 0.0458662946 -0.0639120877 0.0459560230 0.6097939452 -0.5438538811
5054432043 0.5076286756 -0.4673988764 -0.0684515911 0.0465347249 -0.0639214967 0.0464687340 0.6126354535 -0.5575301006
5057436550 0.5023422769 -0.4679356122 -0.0673226707 0.0477742679 -0.0625895647 0.0476761855 0.5998871373 -0.5628871030
5060441057 0.5042499103 -0.4681906310 -0.0663300548 0.0488985560 -0.0620650072 0.0484904181 0.6062690347 -0.5623017297
5063445564 0.5046369018 -0.4699677786 -0.0658582392 0.0497107246 -0.0614270930 0.0487684460 0.6048302419 -0.5633584172
5066450071 0.5011777000 -0.4730660853 -0.0647481608 0.0502045808 -0.0609095852 0.0490190118 0.6004363401 -0.5696483513
5069454578 0.5008015114 -0.4715099296 -0.0645917172 0.0501059444 -0.0604327608 0.0495892017 0.6034132265 -0.5646350740
5072459085 0.4957318922 -0.4794253929 -0.0641061724 0.0506791853 -0.0599833011 0.0503826042 0.6001522298 -0.5698228640
5075463592 0.4960608899 -0.4786244929 -0.0625286557 0.0517845641 -0.0586305361 0.0506814035 0.5986778822 -0.5707673722
5078468099 0.4933723581 -0.4809738896 -0.0608520493 0.0531269363 -0.0573551795 0.0515800692 0.5981806757 -0.5722118627
5081472606 0.4915540030 -0.4822934806 -0.0615848828 0.0526154405 -0.0577610829 0.0514829810 0.5971532232 -0.5770099646
5084477113 0.4942676113 -0.4802192028 -0.0602892881 0.0526472583 -0.0566848080 0.0517513127 0.5952620494 -0.5782055116
5087481620 0.4891084914 -0.4844256114 -0.0587009000 0.0535137098 -0.0557764571 0.0516871775 0.5913003028 -0.5738694035
5090486127 0.4883862448 -0.4865856296 -0.0586500640 0.0533761422 -0.0550471993 0.0524978101 0.5900070343 -0.5804911671
5093490634 0.4831734070 -0.4870398746 -0.0571460432 0.0541143012 -0.0544299792 0.0525230553 0.5854756762 -0.5810797683
5096495141 0.4846971697 -0.4885664712 -0.0562572143 0.0538872886 -0.0535433644 0.0522512050 0.5857377049 -0.5785399276
5099499648 0.4762713179 -0.4885939563 -0.0562294617 0.0536476074 -0.0530230384 0.0525334130 0.5806155286 -0.5781981362
5102504155 0.4777301779 -0.4919615915 -0.0544832502 0.0541863883 -0.0519516270 0.0524140678 0.5820527722 -0.5838225427
5105508662 0.4751193370 -0.4943380480 -0.0537245544 0.0547583101 -0.0514694587 0.0528817271 0.5779535946 -0.5862559560
5108513169 0.4738771945 -0.4941363018 -0.0534720152 0.0542763418 -0.0509377391 0.0529627597 0.5758979354 -0.5901715806
5111517676 0.4750459646 -0.4967464257 -0.0520029168 0.0545314510 -0.0499380714 0.0528647653 0.5763053888 -0.5861771412
5114522183 0.4645633710 -0.5076520180 -0.0518312104 0.0539585468 -0.0498634117 0.0523886244 0.5681057875 -0.5940983558
5117526690 0.4691883992 -0.4986453846 -0.0503622513 0.0544409776 -0.0486978273 0.0526181543 0.5732118111 -0.5901238430
5120531197 0.4679679290 -0.5045976287 -0.0498322256 0.0540666729 -0.0482333245 0.0524064035 0.5701691463 -0.5930549431
5123535704 0.4648942944 -0.5049290162 -0.0493524887 0.0541192466 -0.0475303547 0.0526405210 0.5673162148 -0.5964602422
5126540211 0.4653055923 -0.4998501692 -0.0476054544 0.0543153355 -0.0461991923 0.0526091828 0.5698423999 -0.5924255667
5129544718 0.4563092660 -0.5092584919 -0.0472554251 0.0549017038 -0.0465905857 0.0528515498 0.5584971332 -0.6027124516
5132549225 0.4651992354 -0.5044802426 -0.0471716416 0.0531972007 -0.0461082396 0.0515576987 0.5663624070 -0.5958218936
5135553732 0.4571509919 -0.5093823445 -0.0455338382 0.0537677934 -0.0442856971 0.0524260644 0.5571828983 -0.6007425357
5138558239 0.4552691841 -0.5136507467 -0.0452550872 0.0527162485 -0.0443991608 0.0512036455 0.5543069148 -0.6026197055
5141562746 0.4546000968 -0.5121926519 -0.0443325733 0.0527539811 -0.0436701294 0.0511961751 0.5584363310 -0.5980877353
5144567253 0.4543938717 -0.5118090658 -0.0436273041 0.0522336084 -0.0425625141 0.0510142307 0.5564141827 -0.6003862118
5147571760 0.4488282774 -0.5133127734 -0.0443194149 0.0516420015 -0.0430626322 0.0507911081 0.5508875726 -0.6051229852
5150576267 0.4468778083 -0.5154758404 -0.0433034855 0.0517799698 -0.0427459176 0.0503697620 0.5505548144 -0.6062294110
5153580774 0.4482809442 -0.5173458754 -0.0423663721 0.0514776088 -0.0416332573 0.0504179352 0.5499438601 -0.6081905053
5156585281 0.4474648459 -0.5181529390 -0.0414258058 0.0515801717 -0.0414930442 0.0501301290 0.5488613100 -0.6086238241
5159589788 0.4453091701 -0.5225444188 -0.0410674352 0.0508257841 -0.0409154097 0.0496608213 0.5451923549 -0.6119745996
5162594295 0.4393176127 -0.5285163175 -0.0405534499 0.0501066758 -0.0403929998 0.0489778800 0.5410879529 -0.6120848406
5165598802 0.4381161341 -0.5251887546 -0.0398717224 0.0500151751 -0.0396544408 0.0489375432 0.5415029592 -0.6113868108
5168603309 0.4354672283 -0.5275510027 -0.0405871396 0.0493162207 -0.0402822713 0.0484950810 0.5395126784 -0.6165646638
5171607816 0.4367961868 -0.5238429149 -0.0398694798 0.0491921769 -0.0397969947 0.0480544616 0.5411741910 -0.6093495633
5174612323 0.4337310387 -0.5253219135 -0.0387053182 0.0488828220 -0.0384832930 0.0483086293 0.5355638611 -0.6166542352
5177616830 0.4344456140 -0.5309579691 -0.0384641228 0.0487091704 -0.0387586228 0.0477489672 0.5360731018 -0.6208036339
5180621337 0.4306783126 -0.5307859558 -0.0381455831 0.0482565733 -0.0383254336 0.0476149101 0.5338855495 -0.6187456936
5183625844 0.4297084483 -0.5366098303 -0.0376943839 0.0478975963 -0.0379653505 0.0472776940 0.5290692142 -0.6258757015
5186630351 0.4270967339 -0.5388947177 -0.0369459974 0.0474238490 -0.0371155157 0.0468425887 0.5274333958 -0.6229712712
5189634858 0.4230879461 -0.5388717519 -0.0369495287 0.0471713404 -0.0374390710 0.0462002882 0.5289570293 -0.6200029273
5192639365 0.4208991056 -0.5389143337 -0.0375317655 0.0465806182 -0.0375538369 0.0462158089 0.5288159738 -0.6239208401
5195643872 0.4225010293 -0.5314527596 -0.0368337472 0.0463885527 -0.0369791237 0.0459889857 0.5261030672 -0.6212426890
5198648379 0.4224909618 -0.5360611507 -0.0366141064 0.0459480382 -0.0369699398 0.0455524389 0.5269263598 -0.6241299564
5201652886 0.4194448584 -0.5397860577 -0.0360082120 0.0457367131 -0.0363473865 0.0453422413 0.5213980798 -0.6271834590
5204657393 0.4189452860 -0.5463010191 -0.0358969938 0.0456294867 -0.0360937702 0.0455945745 0.5208517013 -0.6330136549
5207661900 0.4205794108 -0.5402426153 -0.0357550907 0.0446684862 -0.0359399099 0.0445411283 0.5204335995 -0.6252404367
5210666407 0.4134127121 -0.5597104220 -0.0356011034 0.0444466767 -0.0357572741 0.0446886620 0.5138825811 -0.6420370202
5213670914 0.4082382371 -0.5413056457 -0.0353122726 0.0437069622 -0.0356181581 0.0437134188 0.5136120179 -0.6218528695
5216675421 0.4066544267 -0.5421161260 -0.0357776841 0.0436116393 -0.0360303850 0.0436629587 0.5142044786 -0.6268105463
5219679928 0.4092761645 -0.5416799170 -0.0357093433 0.0433158102 -0.0362479186 0.0433751854 0.5149687588 -0.6321977287
5222684435 0.4097191664 -0.5428458132 -0.0344554461 0.0436110502 -0.0349871156 0.0437822486 0.5099104383 -0.6297571729
5225688942 0.4017066369 -0.5488296322 -0.0346385404 0.0434259823 -0.0352180972 0.0433618344 0.5132002985 -0.6349875727
5228693449 0.4024562298 -0.5513513242 -0.0346769055 0.0429224543 -0.0353144195 0.0431448747 0.5050533194 -0.6368504126
5231697956 0.4013829636 -0.5491119747 -0.0340727119 0.0422679688 -0.0345139524 0.0427028944 0.5028888739 -0.6316622958
5234702463 0.3998857343 -0.5529455148 -0.0347515735 0.0413017683 -0.0347761739 0.0420911838 0.4993359879 -0.6330985448
5237706970 0.3946960316 -0.5543977086 -0.0348169928 0.0419279519 -0.0348858969 0.0425180270 0.4989691461 -0.6334739486
5240711477 0.3934931525 -0.5523453750 -0.0346212354 0.0420173126 -0.0352925228 0.0425274702 0.4984597153 -0.6362956117
5243715984 0.3912181628 -0.5450157544 -0.0347847992 0.0414963284 -0.0349638698 0.0420166091 0.4995075355 -0.6356495251
5246720491 0.3971778493 -0.5492638500 -0.0345083579 0.0413208386 -0.0350258905 0.0420250231 0.5005549320 -0.6370467129
5249724998 0.3935585951 -0.5530098342 -0.0338256526 0.0409853066 -0.0342762129 0.0416376724 0.4932191288 -0.6375962220
5252729505 0.3897085114 -0.5553726986 -0.0333045451 0.0411391843 -0.0339535875 0.0415848545 0.4938289538 -0.6351374919
5255734012 0.3827923034 -0.5485565575 -0.0329879474 0.0402126674 -0.0330684507 0.0412676572 0.4874707548 -0.6250142211
5258738519 0.3940647938 -0.5586807714 -0.0344233662 0.0392939061 -0.0345778220 0.0404065980 0.4943295604 -0.6363604756
5261743026 0.3837097098 -0.5514867055 -0.0342117482 0.0393840991 -0.0344328340 0.0404357991 0.4893625368 -0.6315379541
5264747533 0.3800872872 -0.5462215169 -0.0337735626 0.0397941605 -0.0348970350 0.0402741248 0.4951066311 -0.6329365923
5267752040 0.3839538149 -0.5491267562 -0.0342432013 0.0397925623 -0.0346214915 0.0409184056 0.4813254906 -0.6382863658
5270756547 0.3841618598 -0.5579962591 -0.0339634646 0.0399055122 -0.0342009632 0.0411401184 0.4819654290 -0.6381772650
5273761054 0.3781474945 -0.5572280469 -0.0333992449 0.0390579273 -0.0341758484 0.0400019040 0.4898219324 -0.6385158158
5276765561 0.3767509263 -0.5605862410 -0.0334012175 0.0385755852 -0.0340719143 0.0395938678 0.4782010796 -0.6373055701
5279770068 0.3700841820 -0.5531139562 -0.0333472485 0.0379052577 -0.0337397827 0.0391157803 0.4705632832 -0.6303872046
5282774575 0.3723633361 -0.5524360370 -0.0342092303 0.0373288564 -0.0345305111 0.0387781883 0.4758096170 -0.6308268868
5285779082 0.3665125568 -0.5559086416 -0.0342381137 0.0380035591 -0.0351184361 0.0391927477 0.4801761057 -0.6381212577
5288783589 0.3752409985 -0.5566731309 -0.0337093563 0.0384423943 -0.0343317639 0.0397610772 0.4692296114 -0.6371171246
5291788096 0.3961111932 -0.5553833948 -0.0350367411 0.0367499592 -0.0351304480 0.0386610345 0.4882930488 -0.6389389627
5294792603 0.3801068617 -0.5668594277 -0.0335591707 0.0381200297 -0.0342575405 0.0392245583 0.4852438429 -0.6426437493
5297797110 0.3670998643 -0.5603664918 -0.0336546422 0.0371964595 -0.0341558344 0.0385227123 0.4705792166 -0.6370066623
5300801617 0.3619905709 -0.5638904679 -0.0339378636 0.0372643212 -0.0347045636 0.0387341094 0.4675103349 -0.6410358294
5303806124 0.3635001218 -0.5665527963 -0.0342709529 0.0369415381 -0.0346806167 0.0385485436 0.4761267933 -0.6402954222
5306810631 0.3590993409 -0.5573947466 -0.0339241446 0.0359838753 -0.0342188570 0.0379284724 0.4619169319 -0.6347364689
5309815138 0.3657442242 -0.5576858860 -0.0351623366 0.0359426211 -0.0352506364 0.0380898655 0.4681086130 -0.6401450829
5312819645 0.3664275991 -0.5557369088 -0.0351143291 0.0363664431 -0.0354670034 0.0378189463 0.4720286846 -0.6367234425
5315824152 0.3693505365 -0.5688674605 -0.0346312189 0.0366872775 -0.0350614421 0.0385488515 0.4688331584 -0.6449392031
5318828659 0.3637656445 -0.5695674747 -0.0344652875 0.0359974624 -0.0348569385 0.0379158093 0.4641325235 -0.6436790639
5321833166 0.3730196924 -0.5738355899 -0.0354240794 0.0351562591 -0.0355961748 0.0371605001 0.4706046069 -0.6465823235
5324837673 0.3590653955 -0.5725638696 -0.0349919028 0.0355914069 -0.0353621747 0.0374499522 0.4674725894 -0.6461022207
5327842180 0.3521931848 -0.5707609273 -0.0352498655 0.0350580935 -0.0355606839 0.0370325590 0.4567359423 -0.6444570206
5330846687 0.3515064604 -0.5630198176 -0.0357030621 0.0344114551 -0.0362549066 0.0367556954 0.4584061445 -0.6492845557
5333851194 0.3620746456 -0.5710045175 -0.0363197624 0.0355574310 -0.0370109249 0.0373952775 0.4668329684 -0.6572750163
5336855701 0.3596489696 -0.5747829253 -0.0366620010 0.0349728122 -0.0371295255 0.0371642271 0.4765373167 -0.6539750834
5339860208 0.3395853427 -0.5827029509 -0.0359814534 0.0351648749 -0.0367193676 0.0371409947 0.4544341487 -0.6577510857
5342864715 0.3466803128 -0.5823260216 -0.0358991296 0.0351032735 -0.0364023176 0.0373238563 0.4587077004 -0.6606265251
5345869222 0.3438043021 -0.5811469647 -0.0365407219 0.0345669527 -0.0372770008 0.0365910651 0.4567177313 -0.6579386067
5348873729 0.3563618643 -0.5832847261 -0.0371389791 0.0347463168 -0.0373886464 0.0371398112 0.4588886027 -0.6584816924
5351878236 0.3543196574 -0.5889888204 -0.0370089961 0.0347895408 -0.0373859971 0.0373472025 0.4412449456 -0.6753753190
5354882743 0.3413260534 -0.5897465848 -0.0375405339 0.0340742241 -0.0375042921 0.0365270307 0.4508875028 -0.6635872930
5357887250 0.3433102274 -0.5893788286 -0.0382554023 0.0346039585 -0.0383050418 0.0374082426 0.4586090599 -0.6699361822
5360891757 0.3553624902 -0.5860661605 -0.0383495408 0.0345801978 -0.0383664792 0.0372935127 0.4571786274 -0.6677098596
5363896264 0.3486179305 -0.5968873914 -0.0374108710 0.0355452988 -0.0376930742 0.0380537969 0.4531255013 -0.6753681340
5366900771 0.3353682178 -0.6021450785 -0.0374443238 0.0347307484 -0.0376365013 0.0376736104 0.4412267347 -0.6789168586
5369905278 0.3550419167 -0.5988594056 -0.0387372809 0.0339016435 -0.0386564673 0.0369918710 0.4522778069 -0.6789073769
5372909785 0.3131614713 -0.5830942529 -0.0376086896 0.0344622884 -0.0378634618 0.0374709634 0.4257207908 -0.6713122696
5375914292 0.3442059393 -0.5896711167 -0.0390679282 0.0340021431 -0.0409331983 0.0358802905 0.4960744251 -0.6702047771
5378918799 0.3275648717 -0.6051681057 -0.0393661309 0.0343708303 -0.0399843776 0.0375697152 0.4487688454 -0.6975679620
5381923306 0.3529984512 -0.5999648905 -0.0395155575 0.0349155056 -0.0385870957 0.0384624336 0.4347243533 -0.6901058873
5384927813 0.3300124772 -0.6101161620 -0.0403216502 0.0341446054 -0.0413401350 0.0367964957 0.4642695886 -0.6808575277
5387932320 0.3454244280 -0.6102255689 -0.0398027886 0.0341310317 -0.0402183863 0.0370108795 0.4619081583 -0.6847965998
5390936827 0.3319182710 -0.6103459289 -0.0399902512 0.0338716016 -0.0403172116 0.0370400331 0.4445700345 -0.6869973118
5393941334 0.3277439818 -0.6047301644 -0.0406406214 0.0337880915 -0.0408655744 0.0370371555 0.4415348429 -0.6871251050
5396945841 0.3379798837 -0.6039555603 -0.0416626008 0.0336089487 -0.0419331439 0.0368521040 0.4496833267 -0.6910624346
5399950348 0.3173159897 -0.6106451986 -0.0408195711 0.0342380922 -0.0407303034 0.0375333482 0.4151766092 -0.6957844556
5402954855 0.3160331311 -0.6178611009 -0.0408860388 0.0345667269 -0.0415765019 0.0377371171 0.4410184226 -0.7008004426
5405959362 0.3413531497 -0.6122981712 -0.0425731689 0.0341084616 -0.0423365765 0.0376604663 0.4357000379 -0.6984496219
5408963869 0.3348718214 -0.6204583570 -0.0423354251 0.0347533634 -0.0424860577 0.0381572883 0.4394058478 -0.6985869441
5411968376 0.3265917245 -0.6254199487 -0.0416361466 0.0352162212 -0.0418523905 0.0386737901 0.4321322841 -0.7037689721
5414972883 0.3389367949 -0.6296326649 -0.0424114588 0.0353279516 -0.0424099087 0.0389521289 0.4490447671 -0.7090651474
5417977390 0.3103101418 -0.6324627167 -0.0424586132 0.0348051677 -0.0429726322 0.0383799815 0.4334940428 -0.7104828402
5420981897 0.3168267382 -0.6200705867 -0.0432870245 0.0348477708 -0.0432484062 0.0388167753 0.4339786568 -0.7090522667
5423986404 0.3334779798 -0.6135805172 -0.0444233211 0.0344792584 -0.0439366452 0.0386573883 0.4317363062 -0.7039939078
5426990911 0.3142418192 -0.6274144547 -0.0439329253 0.0353839543 -0.0430579751 0.0396836975 0.4062232914 -0.7139430417
5429995418 0.3251407537 -0.6184141933 -0.0444270668 0.0351584045 -0.0436809492 0.0393053130 0.4202874594 -0.7009634420
5432999925 0.3254471035 -0.6263889451 -0.0445171096 0.0355174537 -0.0441966525 0.0396823418 0.4312161365 -0.7039093790
5436004432 0.2929829359 -0.6321279279 -0.0442783057 0.0356484114 -0.0439708127 0.0399702601 0.4085414297 -0.7115178487
5439008939 0.2986672475 -0.6282381265 -0.0443771674 0.0360161417 -0.0439651482 0.0405116025 0.4113265935 -0.7123800192
5442013446 0.3133736829 -0.6113689407 -0.0452985029 0.0356074975 -0.0446328888 0.0399920885 0.4135560156 -0.7025029502
5445017953 0.3051289313 -0.6306057002 -0.0455989047 0.0364546191 -0.0454346803 0.0405966975 0.4171114816 -0.7101986950
5448022460 0.2847964855 -0.6349737421 -0.0456984709 0.0365019055 -0.0459145389 0.0407513776 0.4131918469 -0.7015333352
5451026967 0.3054049720 -0.6350278089 -0.0463186147 0.0367046175 -0.0456898862 0.0413713034 0.4150482242 -0.7117373658
5454031474 0.3029847829 -0.6242832568 -0.0463251599 0.0374650247 -0.0446608055 0.0421220133 0.3896395628 -0.7021632775
5457035981 0.3013696426 -0.6221147296 -0.0470127692 0.0372146971 -0.0456622428 0.0420726914 0.4036269554 -0.7029793124
5460040488 0.3059677716 -0.6335420676 -0.0476968869 0.0379382508 -0.0462078986 0.0428972275 0.4029432938 -0.7181871789
5463044995 0.3045044089 -0.6366184608 -0.0475268501 0.0384603898 -0.0463988956 0.0426557904 0.3997941968 -0.7121801195
5466049502 0.2932397838 -0.6356070305 -0.0479123059 0.0382668967 -0.0462953782 0.0433774663 0.3947184430 -0.7152000267
5469054009 0.3021045436 -0.6329007646 -0.0482294705 0.0391158546 -0.0468906305 0.0437557878 0.4010598499 -0.7097326618
5472058516 0.2960102666 -0.6294407258 -0.0489606169 0.0388361891 -0.0470180995 0.0439487244 0.3920302847 -0.7055799744
5475063023 0.2942798243 -0.6350183831 -0.0477619026 0.0403349896 -0.0462256524 0.0452044257 0.3997936318 -0.7051615540
5478067530 0.3006903800 -0.6256030833 -0.0492816202 0.0402045949 -0.0463154344 0.0456661785 0.3892529925 -0.7117583422
5481072037 0.2959004204 -0.6337789199 -0.0496921944 0.0404915615 -0.0474389981 0.0454498100 0.3922042800 -0.7101143519
5484076544 0.2951554415 -0.6300123846 -0.0501304676 0.0408695761 -0.0476354111 0.0460527416 0.3915610869 -0.7065055220
5487081051 0.2926633569 -0.6183168834 -0.0502322982 0.0411587670 -0.0474942295 0.0462683103 0.3859448410 -0.6963218891
5490085558 0.2972157501 -0.6281722086 -0.0497919892 0.0420965500 -0.0474389972 0.0469853240 0.3955268624 -0.6965454706
5493090065 0.2959347546 -0.6248748855 -0.0506077656 0.0420434363 -0.0474231591 0.0471004984 0.3862118850 -0.7001860235
5496094572 0.2915302541 -0.6234184822 -0.0509571020 0.0426107562 -0.0480158595 0.0477683040 0.3915546455 -0.6925300000
5499099079 0.2841273359 -0.6166797577 -0.0504563111 0.0440463314 -0.0476823715 0.0491600277 0.3906886014 -0.6879561879
5502103586 0.2753310014 -0.6234609483 -0.0499719269 0.0442983289 -0.0464713250 0.0493510078 0.3703494084 -0.6951248236
5505108093 0.3028183467 -0.6294181254 -0.0525037505 0.0440171465 -0.0490832134 0.0490873595 0.4042382352 -0.6997583356
5508112600 0.2907935011 -0.6302738345 -0.0512357705 0.0455848339 -0.0475708861 0.0504938029 0.3906316910 -0.7013538087
5511117107 0.2799764795 -0.6326974987 -0.0514077585 0.0457775761 -0.0479369251 0.0504507399 0.3802151772 -0.6966705031
5514121614 0.2856855025 -0.6295010129 -0.0510537427 0.0469711769 -0.0473143272 0.0517058872 0.3902017558 -0.6923330004
5517126121 0.2876790507 -0.6306390617 -0.0514909295 0.0475588545 -0.0473766358 0.0524604221 0.3910124542 -0.6954765423
5520130628 0.2857556800 -0.6492106841 -0.0520251995 0.0496041718 -0.0479924803 0.0543039237 0.3910780537 -0.7083208014
5523135135 0.2896155092 -0.6380957491 -0.0514153465 0.0493137704 -0.0473690614 0.0537172921 0.3973711770 -0.6993799977
5526139642 0.2974990126 -0.6374234249 -0.0515868130 0.0505309128 -0.0475211187 0.0546392693 0.4038591607 -0.7050571543
5529144149 0.3036549154 -0.6448448036 -0.0517593058 0.0502824290 -0.0472042534 0.0545562135 0.4091456059 -0.7099387037
5532148656 0.2899726018 -0.6405101950 -0.0514636736 0.0516008003 -0.0468844693 0.0555557736 0.3956856264 -0.7063646220
5535153163 0.2953133471 -0.6388467810 -0.0510154552 0.0524446633 -0.0461982632 0.0565904207 0.4043056677 -0.7007448782
5538157670 0.2873417200 -0.6513654329 -0.0493245104 0.0539941610 -0.0446250315 0.0577309264 0.3952964020 -0.7127039613
5541162177 0.2953825951 -0.6494344761 -0.0505846344 0.0536338516 -0.0446768734 0.0577821694 0.4028733039 -0.7153228786
5544166684 0.2880204272 -0.6399153580 -0.0509881709 0.0544663042 -0.0447899783 0.0585137482 0.3952284573 -0.7100306852
5547171191 0.2865982008 -0.6602095674 -0.0495461413 0.0556418009 -0.0440594707 0.0590819204 0.3966414173 -0.7247089783
5550175698 0.2921278475 -0.6650940222 -0.0485035912 0.0567838973 -0.0431616396 0.0599427866 0.3986541426 -0.7257053017
5553180205 0.2900461259 -0.6584730331 -0.0485039168 0.0573864886 -0.0427473559 0.0604572102 0.4000520187 -0.7246019657
5556184712 0.2894066939 -0.6650071644 -0.0479562565 0.0585235043 -0.0429058645 0.0608898231 0.3996294479 -0.7281928546
5559189219 0.2686484499 -0.6673764958 -0.0470412670 0.0591457653 -0.0406097701 0.0620754476 0.3744811747 -0.7326656335
5562193726 0.2872338463 -0.6649784172 -0.0478359687 0.0590725598 -0.0415476087 0.0617191128 0.3973071275 -0.7288526966
5565198233 0.2761995198 -0.6754319137 -0.0457534407 0.0606727484 -0.0396163946 0.0627800459 0.3861809405 -0.7438161455
5568202740 0.2861014083 -0.6683168283 -0.0461147826 0.0601918233 -0.0403477274 0.0618801891 0.3982268030 -0.7317243971
5571207247 0.2687869462 -0.6732446416 -0.0447886355 0.0618567963 -0.0387436371 0.0635051745 0.3773705114 -0.7405339391
5574211754 0.2866760930 -0.6743445701 -0.0441655626 0.0619970072 -0.0386983251 0.0631160797 0.3957230836 -0.7406136121
5577216261 0.2765325328 -0.6719060937 -0.0433348006 0.0630130206 -0.0369435068 0.0641031135 0.3871262040 -0.7383679696
5580220768 0.2649187814 -0.6847426382 -0.0422240764 0.0639517430 -0.0363285911 0.0648053955 0.3742306398 -0.7532831737
5583225275 0.2646695041 -0.6841244921 -0.0411409815 0.0644310243 -0.0351512364 0.0650968895 0.3744778067 -0.7534605761
5586229782 0.2661799296 -0.6829406892 -0.0396330718 0.0644678917 -0.0336204961 0.0647399094 0.3760289090 -0.7519081003
5589234289 0.2707932267 -0.6846926060 -0.0400342395 0.0649591380 -0.0339736392 0.0651188977 0.3845858746 -0.7552206433
5592238796 0.2690277919 -0.6808360000 -0.0382131364 0.0647876302 -0.0326165057 0.0643946486 0.3792427222 -0.7483329791
5595243303 0.2574293236 -0.6778514720 -0.0389833091 0.0645463709 -0.0328040018 0.0646064785 0.3670993326 -0.7451887371
5598247810 0.2683227002 -0.6852897107 -0.0366435669 0.0656387762 -0.0312247456 0.0649216711 0.3773687378 -0.7503175666
5601252317 0.2657630363 -0.6857918965 -0.0355748929 0.0658307808 -0.0302162935 0.0648698912 0.3761750281 -0.7539453139
5604256824 0.2622663575 -0.6879542992 -0.0349871806 0.0659878619 -0.0294260041 0.0649028087 0.3722112996 -0.7577705996
5607261331 0.2517606773 -0.6916792366 -0.0338900381 0.0661483297 -0.0287428765 0.0649890889 0.3601391493 -0.7609626768
5610265838 0.2627214734 -0.6865957047 -0.0335162085 0.0655478881 -0.0286083022 0.0640896322 0.3722063394 -0.7537574466
5613270345 0.2572332902 -0.6907281274 -0.0320249894 0.0658214662 -0.0268384314 0.0644493064 0.3671438696 -0.7580227844
5616274852 0.2629881889 -0.6902193176 -0.0318623141 0.0652300196 -0.0263666300 0.0634661684 0.3767246918 -0.7546990603
5619279359 0.2561374939 -0.6880553919 -0.0310927551 0.0656211691 -0.0262859959 0.0639134143 0.3667143858 -0.7578868838
5622283866 0.2501614650 -0.6906568172 -0.0291950888 0.0664996281 -0.0251923384 0.0642271533 0.3581719965 -0.7608083657
5625288373 0.2535247296 -0.6942589787 -0.0284595463 0.0656911604 -0.0243862655 0.0635850491 0.3650342208 -0.7623996683
5628292880 0.2574150431 -0.6911307984 -0.0272619396 0.0654073759 -0.0229047057 0.0635624568 0.3665024173 -0.7583577701
5631297387 0.2506932936 -0.6926074732 -0.0262607787 0.0652931717 -0.0222147048 0.0632162455 0.3588158028 -0.7606935356
5634301894 0.2434720876 -0.7000818744 -0.0255853881 0.0652727855 -0.0220811062 0.0629144326 0.3519930171 -0.7679266864
5637306401 0.2430310394 -0.6949206003 -0.0247140446 0.0650540701 -0.0223014821 0.0623022125 0.3530130610 -0.7608021704
5640310908 0.2501771614 -0.6859222004 -0.0243472440 0.0641133899 -0.0207122137 0.0614304470 0.3599329430 -0.7514605563
5643315415 0.2322981028 -0.7085610166 -0.0255107038 0.0649536486 -0.0222226735 0.0627545510 0.3428885799 -0.7800529039
5646319922 0.2457807541 -0.6916761862 -0.0224200799 0.0639425338 -0.0197249859 0.0613896864 0.3543186572 -0.7592279474
5649324429 0.2350321820 -0.7034321550 -0.0209013492 0.0643639032 -0.0184695326 0.0620283089 0.3457000585 -0.7731237689
5652328936 0.2387422430 -0.7007530742 -0.0216191449 0.0627490515 -0.0183305095 0.0608129351 0.3469488389 -0.7674067754
5655333443 0.2390039436 -0.7121539369 -0.0215348255 0.0625279907 -0.0188738498 0.0605008234 0.3458793913 -0.7756042860
5658337950 0.2317177032 -0.7067302747 -0.0204643972 0.0625897948 -0.0182408253 0.0602376584 0.3411958727 -0.7759999742
5661342457 0.2295989571 -0.7069787034 -0.0202293953 0.0620283539 -0.0181107125 0.0596689638 0.3398227801 -0.7756989845
5664346964 0.2351247924 -0.6982207432 -0.0196852354 0.0608019665 -0.0175180451 0.0586399546 0.3439558867 -0.7630415616
5667351471 0.2351441158 -0.6953540413 -0.0190461792 0.0610736550 -0.0172830647 0.0587256819 0.3430565040 -0.7627387295
5670355978 0.2299375509 -0.7012866601 -0.0189775831 0.0609589749 -0.0174724623 0.0582625858 0.3470702191 -0.7776782547
5673360485 0.2260611097 -0.7009330497 -0.0170409456 0.0606097762 -0.0160068047 0.0583298169 0.3376852434 -0.7718870678
5676364992 0.2360128386 -0.6999300239 -0.0181502010 0.0593566150 -0.0156693136 0.0573702385 0.3362613627 -0.7606000924
5679369499 0.2267373960 -0.7001395754 -0.0166508104 0.0590959747 -0.0155462367 0.0570261907 0.3319101586 -0.7661309345
5682374006 0.2286465858 -0.7079675923 -0.0169979277 0.0580980880 -0.0159930188 0.0559872345 0.3380592515 -0.7718173269
5685378513 0.2103534509 -0.7117893834 -0.0167843561 0.0584456401 -0.0159608367 0.0566783256 0.3171373704 -0.7779997744
5688383020 0.2229143756 -0.6970447683 -0.0163882621 0.0575463334 -0.0159646033 0.0552612433 0.3370022584 -0.7680166237
5691387527 0.2311358165 -0.7028365294 -0.0157327341 0.0571293524 -0.0151032671 0.0553320687 0.3372152717 -0.7690329632
5694392034 0.2246547212 -0.7087615743 -0.0155723906 0.0567797865 -0.0146816457 0.0549529604 0.3321378936 -0.7730471220
5697396541 0.2144791753 -0.7097239170 -0.0145179998 0.0568429279 -0.0145242162 0.0550930294 0.3248677177 -0.7797937242
5700401048 0.2146442533 -0.7248920507 -0.0146354673 0.0567001871 -0.0142726619 0.0553993982 0.3170183945 -0.7896418688
5703405555 0.2211092447 -0.6994076034 -0.0138406040 0.0547862775 -0.0139105855 0.0532749921 0.3239191869 -0.7638607194
5706410062 0.2212894848 -0.6917254809 -0.0130139035 0.0538714519 -0.0123606210 0.0525173249 0.3209018933 -0.7521936836
5709414569 0.2127558479 -0.7277340130 -0.0152179096 0.0543300120 -0.0149039909 0.0530091157 0.3231675544 -0.7908577337
5712419076 0.2103140106 -0.7032003327 -0.0140794808 0.0538437153 -0.0138295791 0.0524364406 0.3197459439 -0.7684659779
5715423583 0.2222615083 -0.6986357917 -0.0134011997 0.0528439398 -0.0130240895 0.0518438539 0.3219449280 -0.7596376127
5718428090 0.2303150413 -0.7264023090 -0.0148326809 0.0531730346 -0.0144351985 0.0523085655 0.3271654713 -0.7858773150
5721432597 0.2163600389 -0.7097321590 -0.0134549667 0.0528444214 -0.0133865522 0.0515922171 0.3228670059 -0.7744437248
5724437104 0.2140687781 -0.7091770429 -0.0131616607 0.0522870976 -0.0132432325 0.0513753458 0.3182231831 -0.7736038719
5727441611 0.2074034054 -0.7096872540 -0.0128292737 0.0515870247 -0.0133260776 0.0506531863 0.3113363248 -0.7742280043
5730446118 0.2075354843 -0.7088053728 -0.0128518885 0.0511395427 -0.0130057030 0.0502530282 0.3164250284 -0.7734516498
5733450625 0.1922334434 -0.6993396147 -0.0136393177 0.0508085245 -0.0142041883 0.0495651270 0.3232957120 -0.7725462135
5736455132 0.2239736429 -0.7068751526 -0.0133026627 0.0504316690 -0.0133146405 0.0496106935 0.3316323146 -0.7659875403
5739459639 0.1996484167 -0.6978707532 -0.0126967588 0.0503937516 -0.0135136345 0.0494986839 0.3067292456 -0.7657814211
5742464146 0.2057722235 -0.7055783833 -0.0130773025 0.0496494051 -0.0131315993 0.0492240357 0.3042650543 -0.7682516134
5745468653 0.2143315844 -0.7241530711 -0.0129983927 0.0499807996 -0.0134466318 0.0492774575 0.3271547938 -0.7866340704
5748473160 0.2086039366 -0.7284055241 -0.0130084051 0.0497632471 -0.0126669840 0.0498351360 0.2727629582 -0.7824039628
5751477667 0.2243565313 -0.7147642813 -0.0131700856 0.0479738270 -0.0135472799 0.0474806063 0.3320230830 -0.7726149669
5754482174 0.2074362185 -0.7101655380 -0.0127741712 0.0477196611 -0.0130285352 0.0474209256 0.3067096362 -0.7701645970
5757486681 0.2192341182 -0.7160494617 -0.0135368491 0.0470870544 -0.0139115980 0.0469107071 0.3253068177 -0.7741657367
5760491188 0.1897084245 -0.7082908628 -0.0122405250 0.0480439354 -0.0134100510 0.0477232361 0.3080688379 -0.7750804849
5763495695 0.2003565991 -0.7038828946 -0.0121584894 0.0469595499 -0.0122613650 0.0469360190 0.3081124548 -0.7663839522
5766500202 0.2199658216 -0.7030006836 -0.0127770285 0.0462469562 -0.0125510705 0.0464301195 0.3139584196 -0.7595124972
5769504709 0.2077547207 -0.7147847055 -0.0124525513 0.0464002651 -0.0131814159 0.0462258515 0.3175709520 -0.7767691423
5772509216 0.2186759405 -0.7188803689 -0.0125483015 0.0456434202 -0.0130716360 0.0457469660 0.3232648265 -0.7717355437
5775513723 0.2204098705 -0.7140246402 -0.0127672439 0.0451767768 -0.0128873311 0.0453499945 0.3083729439 -0.7690172266
5778518230 0.2174574859 -0.7157910033 -0.0130266334 0.0443215036 -0.0133652887 0.0445784177 0.3191800098 -0.7704226729
5781522737 0.2539826983 -0.7282272932 -0.0151458562 0.0440208330 -0.0156567271 0.0440227576 0.3631663928 -0.7809869706
5784527244 0.2231282468 -0.7177571953 -0.0135875374 0.0444670930 -0.0140051771 0.0448653611 0.3175330409 -0.7730833565
5787531751 0.2198934701 -0.7187699602 -0.0134389718 0.0439753829 -0.0140321986 0.0445013734 0.3137597321 -0.7773921032
5790536258 0.2084414480 -0.7220407178 -0.0132524191 0.0436872584 -0.0144829096 0.0437709206 0.3384035874 -0.7759736684
5793540765 0.2154013986 -0.7295881524 -0.0137259964 0.0435823062 -0.0144842633 0.0440803088 0.3244784998 -0.7832221925
5796545272 0.1996178483 -0.7170413964 -0.0133122484 0.0428501947 -0.0137494752 0.0432808783 0.2991675619 -0.7717201015
5799549779 0.2272436782 -0.7293302184 -0.0140033665 0.0427374347 -0.0146920656 0.0431567999 0.3319780041 -0.7832221627
5802554286 0.2106192530 -0.7307016090 -0.0142935233 0.0421460106 -0.0149187987 0.0425986860 0.3191527355 -0.7818972503
5805558793 0.2131906015 -0.7254424075 -0.0144698198 0.0422245153 -0.0150783142 0.0427813549 0.3282806870 -0.7845426980
5808563300 0.2306693023 -0.7249533950 -0.0142197605 0.0420221328 -0.0149832081 0.0424249632 0.3443371509 -0.7778843462
5811567807 0.1969206676 -0.7510244969 -0.0137378528 0.0433118736 -0.0148056507 0.0440227760 0.3065578148 -0.8145039355
5814572314 0.2005268860 -0.7401338864 -0.0141383081 0.0416928083 -0.0146955394 0.0423941950 0.3039769510 -0.7904141893
5817576821 0.2141900926 -0.7312770449 -0.0142821172 0.0412067696 -0.0151145905 0.0419240130 0.3292969778 -0.7869800250
5820581328 0.2072488012 -0.7407671265 -0.0144825227 0.0412652985 -0.0151136886 0.0420310775 0.3183655522 -0.7964149993
5823585835 0.2175415466 -0.7468797626 -0.0149248185 0.0413480085 -0.0158063856 0.0421408923 0.3364033419 -0.8037534748
5826590342 0.2184713255 -0.7328450277 -0.0146376368 0.0402663221 -0.0153780159 0.0412578527 0.3248911088 -0.7878846850
5829594849 0.2573920407 -0.7293262930 -0.0168467599 0.0396951249 -0.0169051548 0.0406807427 0.3391309670 -0.7868158338
5832599356 0.1953386808 -0.7387800519 -0.0147787901 0.0402655416 -0.0156748161 0.0412706576 0.3072803029 -0.7927621643
5835603863 0.2336682952 -0.7502533401 -0.0160722235 0.0404919303 -0.0170845286 0.0414467493 0.3496619077 -0.8019655357
5838608370 0.2157750683 -0.7298018118 -0.0150856770 0.0396590833 -0.0156829764 0.0409760117 0.3053732561 -0.7943390776
5841612877 0.2068794261 -0.7485013300 -0.0153059389 0.0396984532 -0.0161465138 0.0409172131 0.3239147268 -0.8009666666
5844617384 0.1798726940 -0.7525940523 -0.0152743409 0.0390179952 -0.0169337887 0.0399756375 0.3324996360 -0.7955764259
5847621891 0.2002368183 -0.7506828185 -0.0156364493 0.0388306267 -0.0161534779 0.0401663260 0.2974885990 -0.8093404047
5850626398 0.2110139425 -0.7485962502 -0.0157907792 0.0386360112 -0.0167489259 0.0399943231 0.3245512038 -0.8031024313
5853630905 0.2064256352 -0.7435990092 -0.0163506961 0.0386287213 -0.0170059294 0.0401015609 0.3067740085 -0.8061527653
5856635412 0.2100939456 -0.7468770756 -0.0166960970 0.0383247270 -0.0171445138 0.0401330055 0.3096354715 -0.8058239953
5859639919 0.2088284380 -0.7602766962 -0.0161177738 0.0390189137 -0.0171029546 0.0405873715 0.3015529900 -0.8232972517
5862644426 0.2024982132 -0.7522299896 -0.0163969896 0.0386754591 -0.0169728800 0.0403347921 0.2901287436 -0.8199743813
5865648933 0.1947720369 -0.7556818263 -0.0164711122 0.0381602943 -0.0174139894 0.0396520750 0.3120068758 -0.8102913766
5868653440 0.1738511191 -0.7588018475 -0.0157790472 0.0386672105 -0.0166076210 0.0400692903 0.2987849314 -0.8067046382
5871657947 0.1891562999 -0.7471901043 -0.0161149481 0.0376248159 -0.0166899279 0.0392104468 0.3025875052 -0.8010318682
5874662454 0.1863762470 -0.7617085336 -0.0170809386 0.0381099072 -0.0176518225 0.0400560221 0.3023640396 -0.8195455460
5877666961 0.1630210846 -0.7583612977 -0.0166536590 0.0378815384 -0.0175632283 0.0398032653 0.2722138625 -0.8229043686
5880671468 0.1594345015 -0.7663994760 -0.0166514463 0.0380200814 -0.0176673133 0.0399225468 0.2751092029 -0.8266789781
5883675975 0.2028323558 -0.7353116227 -0.0178450230 0.0369677744 -0.0181721693 0.0389482262 0.2997484630 -0.7999143067
5886680482 0.1633029430 -0.7732848728 -0.0167541642 0.0381724926 -0.0179746856 0.0401952113 0.2963436957 -0.8221793744
5889684989 0.1723040382 -0.7498204666 -0.0172181904 0.0372158321 -0.0174292085 0.0394820441 0.2689237064 -0.8207388724
5892689496 0.1825638500 -0.7309771515 -0.0182707759 0.0360448363 -0.0191813043 0.0379056291 0.3015499631 -0.7777171555
5895694003 0.1783165725 -0.7505265614 -0.0181693894 0.0366085337 -0.0179043067 0.0391777072 0.2705805354 -0.8192112931
5898698510 0.1563732446 -0.7725436149 -0.0182108708 0.0370457785 -0.0190318426 0.0390854630 0.2689554365 -0.8239036537
5901703017 0.1677339931 -0.7598884257 -0.0189850892 0.0370517442 -0.0192391098 0.0395799653 0.2709627163 -0.8186118666
5904707524 0.1784612199 -0.7402962741 -0.0186312942 0.0369864619 -0.0186206670 0.0391914210 0.2642618746 -0.8077924469
5907712031 0.1441645978 -0.7472734585 -0.0181604552 0.0365996607 -0.0185206921 0.0389237217 0.2495072077 -0.8023466390
5910716538 0.1562500251 -0.7525354006 -0.0180410166 0.0368743492 -0.0184034834 0.0392749282 0.2623188402 -0.8102638003
5913721045 0.1468218632 -0.7417015264 -0.0189775736 0.0366774755 -0.0189569205 0.0392645900 0.2389583059 -0.8049714070
5916725552 0.1513794929 -0.7427174637 -0.0183996146 0.0363230861 -0.0189195578 0.0387099278 0.2525398626 -0.7974187019
5919730059 0.1560388676 -0.7404091963 -0.0185510551 0.0361399449 -0.0187191891 0.0386740510 0.2452120788 -0.8090949715
5922734566 0.1667229892 -0.7424948454 -0.0195941115 0.0368613234 -0.0198472000 0.0394122420 0.2634609515 -0.7999741524
5925739073 0.1490671702 -0.7522203328 -0.0193001262 0.0367641651 -0.0197049374 0.0394574843 0.2508553525 -0.8077308657
5928743580 0.1544752877 -0.7416912150 -0.0199701378 0.0362504215 -0.0200048192 0.0389809351 0.2495922003 -0.7995921909
5931748087 0.1537164112 -0.7396704967 -0.0196720143 0.0363090006 -0.0197274825 0.0390199112 0.2541684159 -0.7922694300
5934752594 0.1686222626 -0.7449716625 -0.0196225530 0.0367802073 -0.0197549162 0.0392868340 0.2602996229 -0.8026032484
5937757101 0.1544719505 -0.7340667239 -0.0200565743 0.0359861160 -0.0195859737 0.0387057537 0.2371396958 -0.7919140320
5940761608 0.1679226118 -0.7320489167 -0.0207235610 0.0360976845 -0.0203997745 0.0388188256 0.2506321491 -0.7930351457
5943766115 0.1461581422 -0.7300760144 -0.0205494978 0.0353994098 -0.0201782061 0.0383652228 0.2330917054 -0.7935088061
5946770622 0.1598488556 -0.7282821155 -0.0210358771 0.0360893799 -0.0211130780 0.0390576324 0.2602372399 -0.7779193438
5949775129 0.1584498609 -0.7402386459 -0.0215370693 0.0365637467 -0.0214868188 0.0389786723 0.2443934988 -0.7850957501
5952779636 0.1797179342 -0.7290278880 -0.0224108749 0.0363634140 -0.0224671653 0.0393674481 0.2802969791 -0.7738791228
5955784143 0.1379316947 -0.7007440982 -0.0203778474 0.0354604463 -0.0203229898 0.0383152616 0.2359839133 -0.7388461044
5958788650 0.1694582162 -0.7411655533 -0.0219318194 0.0365538560 -0.0217980630 0.0394088185 0.2674191051 -0.7857470978
5961793157 0.1616436002 -0.7485063711 -0.0220053959 0.0364277503 -0.0216958477 0.0393646034 0.2565666667 -0.8003248509
5964797664 0.1699901625 -0.7406188602 -0.0220817939 0.0365484342 -0.0215901444 0.0396116465 0.2657502991 -0.7880357371
5967802171 0.1593540277 -0.7328810642 -0.0225187108 0.0358644429 -0.0219800921 0.0391895659 0.2526520594 -0.7883681288
5970806678 0.1580482083 -0.7327124701 -0.0227847857 0.0364364134 -0.0224503249 0.0394873602 0.2436224935 -0.7978971642
5973811185 0.1734942944 -0.7489231213 -0.0234536458 0.0369360713 -0.0232478811 0.0402502866 0.2731109120 -0.7933085521
5976815692 0.1741265131 -0.7351552174 -0.0234769260 0.0366427324 -0.0226049227 0.0401781931 0.2683474588 -0.7891577314
5979820199 0.1665310137 -0.7406882033 -0.0230838227 0.0369951880 -0.0224371581 0.0406029195 0.2653681999 -0.7934626604
5982824706 0.1756987520 -0.7330229943 -0.0229333945 0.0379875663 -0.0224713518 0.0414168718 0.2722440871 -0.7879453206
5985829213 0.1883934698 -0.7545843328 -0.0234923347 0.0382692152 -0.0230509870 0.0416455065 0.2902669766 -0.7934626620
5988833720 0.1773976366 -0.7657223181 -0.0233002279 0.0378786845 -0.0228715230 0.0411810764 0.2770683331 -0.8065303147
5991838227 0.1847251190 -0.7522221199 -0.0241050222 0.0373030233 -0.0236320063 0.0409651890 0.2916954915 -0.7945291821
5994842734 0.1783531421 -0.7536165073 -0.0246666862 0.0379219598 -0.0241040692 0.0415263010 0.2816655016 -0.8012944721
5997847241 0.1932159026 -0.7581538296 -0.0242551052 0.0392395743 -0.0236640829 0.0428526962 0.2914480531 -0.8075244787
6000851748 0.1898061283 -0.7651908308 -0.0243096097 0.0391805686 -0.0235489656 0.0424116872 0.2836908284 -0.8085517496
6003856255 0.1787372371 -0.7497861802 -0.0245196371 0.0391677641 -0.0236382242 0.0429353725 0.2786433066 -0.7996502035
6006860762 0.1801219978 -0.7669962933 -0.0243852265 0.0393175322 -0.0237579893 0.0430474706 0.2825529561 -0.8048805165
6009865269 0.1834813418 -0.7669860079 -0.0244210705 0.0393729479 -0.0228925978 0.0434184129 0.2810580222 -0.8195395277
6012869776 0.1776746047 -0.7702554773 -0.0242026206 0.0388484750 -0.0231259624 0.0427582832 0.2778596023 -0.8155173132
6015874283 0.1672645596 -0.7738928341 -0.0250664626 0.0391133230 -0.0239269270 0.0429509243 0.2675962720 -0.8242839751
6018878790 0.1592612799 -0.7802473810 -0.0257318567 0.0393974908 -0.0246208086 0.0434641145 0.2580895532 -0.8255501957
6021883297 0.1711070435 -0.7789910507 -0.0247530809 0.0408542078 -0.0232754236 0.0450223573 0.2733485416 -0.8254872457
6024887804 0.1773568703 -0.7711176047 -0.0250953845 0.0402291024 -0.0234893723 0.0445247805 0.2768511013 -0.8201098026
6027892311 0.2097006096 -0.7818580163 -0.0258667937 0.0410046443 -0.0243997542 0.0450877916 0.3116117358 -0.8257180894
6030896818 0.1613006616 -0.7784913623 -0.0242918513 0.0412747717 -0.0225967145 0.0452901282 0.2591950187 -0.8308606658
6033901325 0.1803616644 -0.7881315320 -0.0241239725 0.0419428967 -0.0227053923 0.0458721394 0.2804151723 -0.8399044031
6036905832 0.1791831595 -0.7823485563 -0.0250565875 0.0420220575 -0.0228183415 0.0461383009 0.2798263006 -0.8312420401
6039910339 0.1952186606 -0.7781036914 -0.0259570132 0.0411419852 -0.0245334530 0.0450732577 0.2980970336 -0.8171474346
6042914846 0.1813327613 -0.7727187774 -0.0260267598 0.0424555449 -0.0230586619 0.0467330091 0.2819007772 -0.8308419821
6045919353 0.1778545617 -0.7846518848 -0.0245958847 0.0437654274 -0.0222291265 0.0479916424 0.2784845853 -0.8336456952
6048923860 0.1809339099 -0.7822997566 -0.0252322083 0.0429163812 -0.0221082109 0.0473883194 0.2805617028 -0.8337045967
6051928367 0.1974975593 -0.7803288668 -0.0257305764 0.0434397858 -0.0225314151 0.0477743750 0.2979561716 -0.8319010851
6054932874 0.1679066116 -0.7884287283 -0.0247300928 0.0438314127 -0.0221289835 0.0480985357 0.2673300584 -0.8348290871
6057937381 0.1715996211 -0.7874181336 -0.0245859566 0.0440778853 -0.0214141174 0.0482534173 0.2724531440 -0.8360386803
6060941888 0.1626313380 -0.7843953524 -0.0244111343 0.0438241076 -0.0209029532 0.0480980338 0.2646038587 -0.8349537856
6063946395 0.1736191601 -0.7821215450 -0.0250525686 0.0443000482 -0.0217170119 0.0483844888 0.2763600856 -0.8319303632
6066950902 0.1626941219 -0.7870836843 -0.0254155864 0.0454921752 -0.0223441043 0.0495784437 0.2616190372 -0.8358273265
6069955409 0.1749298596 -0.7843843488 -0.0244320913 0.0460655549 -0.0211474648 0.0499578176 0.2755604913 -0.8330396505
6072959916 0.1708793509 -0.7883859818 -0.0240654344 0.0462113402 -0.0203109321 0.0501257903 0.2708623620 -0.8386478063
6075964423 0.1807685255 -0.7766124730 -0.0251733004 0.0458746867 -0.0207712262 0.0498429508 0.2809986484 -0.8256896856
6078968930 0.1689031151 -0.7901346919 -0.0231663209 0.0468670324 -0.0196069429 0.0504390992 0.2676027033 -0.8382551847
6081973437 0.1617502043 -0.7883391601 -0.0228221737 0.0465893391 -0.0186731168 0.0500154803 0.2603213406 -0.8376773818
6084977944 0.1553151542 -0.7927343723 -0.0231413732 0.0473234105 -0.0183858749 0.0508813525 0.2603137642 -0.8420507310
6087982451 0.1770580733 -0.7743561595 -0.0236559905 0.0468718206 -0.0194270784 0.0502248401 0.2783728906 -0.8222447551
6090986958 0.1640449244 -0.7857428602 -0.0234447528 0.0480383006 -0.0188942732 0.0512166181 0.2643395446 -0.8373187211
6093991465 0.1686131512 -0.7906007949 -0.0226218571 0.0492422924 -0.0178764992 0.0521672365 0.2690547633 -0.8407944266
6096995972 0.1728105996 -0.7864844232 -0.0226222119 0.0489345454 -0.0172655134 0.0520576936 0.2732578060 -0.8332408488
6100000479 0.1691447634 -0.7868429701 -0.0212967379 0.0492412264 -0.0166785446 0.0517971672 0.2670319862 -0.8341155138